! RI-MP2 cc-pVTZ cc-pVTZ/c TightSCF KeepDens NoKeepInts

*xyz  0  1
    C    -9.6009838   10.9406647   -1.8169212
    C    -9.0666048   12.2005253   -2.4789014
    O    -8.8584207   11.9206009   -3.8824675
    C    -8.2452616   12.9439328   -4.5818604
    O    -7.9502836   13.9808566   -4.0237812
    C    -7.9416508   12.6408898   -6.0596773
    C    -8.3327976   11.5879752   -6.7633209
    C    -9.2374017   10.4648459   -6.3088962
    N    -7.8514763   11.4403911   -8.0771821
    C    -6.9929608   12.2417201   -8.7588340
    S    -6.3873903   12.1290784  -10.3273547
    N    -6.5334122   13.2760860   -8.0000802
    C    -7.0728973   13.7087258   -6.7204455
    C    -7.7974774   15.0636641   -6.7652566
    C    -7.0634384   16.1796117   -6.3642865
    C    -7.5676531   17.4777696   -6.5133496
    C    -8.8534321   17.6695951   -7.0405718
    C    -9.6456972   16.5105599   -7.3477777
    O   -10.9054670   16.6298511   -7.8425923
    C    -9.0642236   15.2745798   -7.2924863
    H   -10.5679180   10.6526412   -2.2473469
    H    -9.7419139   11.1225145   -0.7444200
    H    -8.8200418   10.1769049   -1.9168785
    H    -9.7867235   13.0114160   -2.3143560
    H    -8.1633306   12.5308461   -1.9514798
    H    -8.8110367    9.9722645   -5.4264228
    H    -9.2957733    9.8106863   -7.1874505
    H   -10.2373589   10.7484906   -5.9584318
    H    -7.9943571   10.5377512   -8.5139805
    H    -5.8789615   13.9260747   -8.4186196
    H    -6.1732145   13.7941496   -6.0987838
    H    -6.0329766   16.0258213   -6.0578602
    H    -6.9460843   18.3095447   -6.1952327
    H    -9.2225263   18.6820489   -7.1751495
    H   -11.4717990   17.3181358   -7.4523855
    H    -9.7257603   14.4676630   -7.5935685
*
