! RI-MP2 cc-pVTZ cc-pVTZ/c TightSCF KeepDens NoKeepInts

*xyz  0  1
    C     3.8149064    0.5724486    5.7865940
    C     2.7561707    0.4196156    4.6695743
    O     1.9319694   -0.7812277    4.8307394
    C     0.7901063   -0.8079862    5.5908020
    O     0.3369272    0.2490147    6.1036570
    C     0.0987212   -2.1589068    5.7397089
    C     0.4152951   -3.2151610    5.0430639
    C     1.5072763   -3.3982455    3.9552095
    N    -0.2024484   -4.4005878    5.2361376
    C    -1.3178287   -4.5060347    6.0313969
    S    -2.1075132   -5.9398669    6.0368052
    N    -1.7561005   -3.3736815    6.6149742
    C    -1.0322983   -2.1666882    6.7603776
    C    -0.5091189   -2.1121189    8.2006288
    C    -0.9624739   -1.1162123    9.0913909
    C    -0.5421714   -1.0726093   10.4352486
    C     0.3431695   -2.0948281   10.9323303
    C     0.8040093   -3.1143578   10.0304738
    O     1.5765507   -4.1375421   10.5304399
    C     0.3990153   -3.0736040    8.6749293
    H     3.3753059    0.8491292    6.7527164
    H     4.5146407    1.3744756    5.5214248
    H     4.3615448   -0.3597026    5.9749291
    H     2.0491050    1.2541298    4.7522423
    H     3.2697346    0.4664701    3.7014594
    H     2.5255673   -3.3047616    4.3521166
    H     1.3513918   -2.6318479    3.1861033
    H     1.4537847   -4.3659869    3.4415969
    H     0.0864608   -5.2418769    4.7516476
    H    -2.5589787   -3.4715324    7.2247103
    H    -1.6637309   -1.3133275    6.4842239
    H    -1.7139051   -0.4070954    8.7568601
    H    -0.8926880   -0.2948371   11.1072638
    H     0.7504277   -2.1308469   11.9384314
    H     1.2669558   -4.9962301   10.1934901
    H     0.6814350   -3.9145844    8.0485206
*
