! RI-MP2 cc-pVTZ cc-pVTZ/c TightSCF KeepDens NoKeepInts

*xyz  0  1
    C    -0.7785737   -3.2163939    1.2367283
    C    -1.1313878   -2.5179166    2.5635013
    O    -0.5365901   -1.2141253    2.5224669
    C    -0.8508706   -0.4267225    3.5974990
    O    -1.4997267   -0.7508297    4.5460915
    C    -0.2660725    0.9398277    3.3695091
    C     0.0006420    1.4970636    2.2121888
    C    -0.2906921    1.0488113    0.8031135
    N     0.7820407    2.6125986    2.1500297
    C     1.3399550    3.1516641    3.2746033
    S     2.3207121    4.4935802    3.3504658
    N     0.8780198    2.7313427    4.4758020
    C    -0.0383816    1.6358664    4.6791328
    C    -1.4074418    2.1066651    5.3169394
    C    -1.4570496    2.6382009    6.6071720
    C    -2.6276117    3.2182622    7.1042715
    C    -3.8063355    3.0594295    6.4153150
    C    -3.8265670    2.6041550    5.0983496
    O    -4.9593566    2.4747271    4.4142265
    C    -2.6510438    2.1278824    4.5682211
    H     0.2520658   -3.1008468    0.8794730
    H    -1.5007940   -2.8364058    0.5037905
    H    -0.9429013   -4.2932704    1.3652709
    H    -2.2234120   -2.5738337    2.6503776
    H    -0.6596399   -3.0500751    3.3986366
    H    -1.3711239    0.8623448    0.7701432
    H     0.3205985    0.1600670    0.6039946
    H    -0.0806741    1.8612774    0.0967279
    H     1.1496950    2.8969493    1.2500588
    H     1.1673039    3.2308726    5.3081187
    H     0.4586527    0.9512043    5.3772619
    H    -0.4733127    2.6524553    7.0670141
    H    -2.6256790    3.7205621    8.0671251
    H    -4.7263661    3.3291330    6.9254125
    H    -5.5626906    3.0922677    4.8629590
    H    -2.7429030    1.6222361    3.6115166
*
