! RI-MP2 cc-pVTZ cc-pVTZ/c TightSCF KeepDens NoKeepInts

*xyz  0  1
    C    -5.5980962   -1.7859321  -11.9375571
    C    -5.1368102   -1.2274933  -10.5981311
    O    -6.2906910   -0.9464258   -9.7879522
    C    -6.1145263   -0.3658910   -8.5799109
    O    -5.0271407    0.0453634   -8.2267119
    C    -7.3765953   -0.1785613   -7.7627473
    C    -7.3799850    0.2913011   -6.5060199
    C    -6.1287714    0.8429082   -5.6966159
    N    -8.6168984    0.2632033   -5.7525475
    C    -9.8029507   -0.2973183   -6.1858924
    S   -11.1344519   -0.4506110   -5.2499152
    N    -9.8001080   -0.5566082   -7.5369441
    C    -8.6964040   -0.3679948   -8.5125648
    C    -9.0953071    0.8850563   -9.3170554
    C    -9.2056975    0.8411816  -10.7416803
    C    -9.6488512    1.9680383  -11.4964829
    C   -10.0102291    3.1042845  -10.8124394
    C    -9.8543371    3.1851721   -9.4106811
    O   -10.1401495    4.3156235   -8.7371812
    C    -9.3501316    2.0819505   -8.6680797
    H    -6.2564646   -1.0706482  -12.4456016
    H    -6.3074753   -2.6104540  -11.7956609
    H    -4.8266469   -2.1844268  -12.6078205
    H    -4.5231372   -1.9598409  -10.0593713
    H    -4.5090948   -0.3370617  -10.7257883
    H    -5.7364799    1.6877947   -6.2758073
    H    -5.4385381   -0.0021104   -5.5838730
    H    -6.4546729    1.1211718   -4.6868896
    H    -8.5964478    0.6244972   -4.8064952
    H   -10.6717186   -0.9154928   -7.9077045
    H    -8.6822313   -1.2123924   -9.2125516
    H    -8.8989902   -0.0605802  -11.2633625
    H    -9.6229448    1.9870152  -12.5820080
    H   -10.3544156    3.9875098  -11.3423871
    H   -10.3615503    4.0822423   -7.8188980
    H    -9.1141019    2.2348332   -7.6191218
*
