! ri-mp2 cc-pvtz cc-pvtz/c TightSCF NoKeepInts

%scf
  MaxCore 4096
end
*xyz  0  1
    C       15.0049383   14.1016981   14.9350991
    C       15.2774261   14.7204675   16.3164221
    O       16.2694880   15.7483379   16.1418117
    C       17.4663260   15.6363666   16.7877919
    O       17.9750127   14.5500401   17.0108517
    C       17.8342556   16.8597552   17.5753233
    C       17.4374361   18.1214511   17.2666321
    C       16.5928869   18.5672749   16.0906457
    N       17.8834399   19.1984255   18.0395175
    C       18.8300038   19.1151552   19.0264959
    S       19.3930834   20.4587604   19.8095486
    N       19.2871070   17.8579216   19.3310805
    C       18.7273201   16.6032391   18.7940080
    C       17.9639388   15.8505805   19.8808174
    C       18.2869047   14.5149336   20.1837320
    C       17.5837532   13.8155413   21.1788829
    C       16.5472387   14.4563692   21.8785909
    C       16.2195392   15.7852518   21.5773933
    O       15.2144637   16.4046858   22.2462828
    C       16.9207176   16.4785133   20.5858266
    H       15.9165632   13.6393078   14.5357302
    H       14.6643268   14.8667717   14.2265588
    H       14.2311980   13.3276658   15.0057450
    H       14.3533479   15.1631364   16.7097813
    H       15.6071874   13.9423825   17.0190039
    H       16.9282396   18.0860095   15.1633557
    H       16.6403976   19.6502425   15.9237463
    H       15.5402736   18.3003003   16.2467550
    H       17.5605118   20.1296092   17.8304679
    H       19.9621378   17.8209597   20.0840364
    H       19.5692662   15.9761213   18.4667305
    H       19.0764881   14.0113814   19.6311532
    H       17.8400889   12.7808346   21.3992671
    H       16.0006089   13.9193645   22.6465690
    H       14.8880894   15.7857189   22.9165313
    H       16.6529952   17.5074254   20.3718146
*
