! ri-mp2 cc-pvtz cc-pvtz/c TightSCF NoKeepInts

%scf
  MaxCore 4096
end
*xyz  0  1
    C       14.8395335   14.4641904   17.3089775
    C       15.5326056   15.6481639   16.6151629
    O       16.8133160   15.1670338   16.1561992
    C       18.0412952   15.6714255   16.5114230
    O       19.0221449   14.9539199   16.4450514
    C       18.0519253   16.8904066   17.3750579
    C       17.5620337   18.0829759   16.9638314
    C       16.9578048   18.4004576   15.6127404
    N       17.6495935   19.1967794   17.8015992
    C       18.2992737   19.2139640   19.0088281
    S       18.4067893   20.5921059   19.9159919
    N       18.8508913   18.0284917   19.4305707
    C       18.7151333   16.7297710   18.7406855
    C       17.9352403   15.7278290   19.5860735
    C       18.3852978   14.4001277   19.7024815
    C       17.6593557   13.4611544   20.4540127
    C       16.4694728   13.8508923   21.0918981
    C       16.0127026   15.1700749   20.9708382
    O       14.8548803   15.5455469   21.5698630
    C       16.7371479   16.1029231   20.2221008
    H       15.4432550   14.1038024   18.1514606
    H       14.6994705   13.6326186   16.6070852
    H       13.8564369   14.7613864   17.6935388
    H       14.9292431   15.9858247   15.7627442
    H       15.6070745   16.4665287   17.3390667
    H       17.1362047   17.6030875   14.8805619
    H       17.3961478   19.3146617   15.1922826
    H       15.8741845   18.5511908   15.6897151
    H       17.2640703   20.0798007   17.5050740
    H       19.3047529   18.0666823   20.3346194
    H       19.7264884   16.3288524   18.5769858
    H       19.2946309   14.0904268   19.1915359
    H       18.0166216   12.4356353   20.5318995
    H       15.9040104   13.1271306   21.6695669
    H       14.5354753   14.7884727   22.0840869
    H       16.3624958   17.1176645   20.1403899
*
