! ri-mp2 cc-pvtz cc-pvtz/c TightSCF NoKeepInts

%scf
  MaxCore 4096
end
*xyz  0  1
    C       14.3963402   15.0801426   16.6489787
    C       15.7030948   14.6796207   15.9432740
    O       16.5326649   15.8539844   15.8881884
    C       17.7470285   15.8397338   16.5098285
    O       18.4080565   14.8187516   16.6065909
    C       17.9281402   16.9920283   17.4519274
    C       17.3771593   18.2198097   17.2738273
    C       16.5294405   18.6932043   16.1113115
    N       17.6359204   19.2378761   18.1968750
    C       18.5250606   19.1462439   19.2353046
    S       18.8529186   20.4359145   20.2175826
    N       19.1301702   17.9283373   19.4181855
    C       18.7899428   16.6956896   18.6828152
    C       18.0875258   15.7013334   19.6031864
    C       18.6094852   14.4078460   19.7879078
    C       17.9571333   13.4848726   20.6225052
    C       16.7707600   13.8568973   21.2774265
    C       16.2452103   15.1428096   21.0923538
    O       15.0946559   15.5021621   21.7154924
    C       16.8972788   16.0596105   20.2620923
    H       14.5997883   15.4195321   17.6728299
    H       13.7111581   14.2253929   16.7022098
    H       13.8940764   15.8905176   16.1064729
    H       16.1813319   13.8598325   16.4972105
    H       15.4866645   14.3281190   14.9262627
    H       16.9466113   18.3494659   15.1565380
    H       16.4634122   19.7866022   16.0563546
    H       15.5083991   18.3000352   16.1926041
    H       17.2018675   20.1395262   18.0797093
    H       19.7573351   17.8792856   20.2107683
    H       19.7293769   16.2427540   18.3342533
    H       19.5159974   14.1112764   19.2659993
    H       18.3681700   12.4853329   20.7523683
    H       16.2622713   13.1460413   21.9201477
    H       14.8271757   14.7608353   22.2792895
    H       16.4753772   17.0505825   20.1353280
*
