! RI-MP2 cc-pVTZ cc-pVTZ/c TightSCF KeepDens NoKeepInts

*xyz  0  1
    C    -6.8818067    1.8166553    2.9756631
    C    -7.0735817    3.2354372    2.4707209
    O    -6.7899152    3.2709077    1.0774351
    C    -6.4123215    4.4862342    0.5608086
    O    -6.6969578    5.5850895    1.1131205
    C    -5.8733003    4.4532466   -0.8727088
    C    -5.2745172    5.5050585   -1.4073619
    C    -4.8862461    6.8116606   -0.8988065
    N    -4.7936132    5.3705742   -2.7528544
    C    -4.8106328    4.2248323   -3.4554428
    S    -4.2753549    4.1851910   -5.0291058
    N    -5.2421856    3.1198673   -2.8204690
    C    -5.9739543    3.0684755   -1.5539342
    C    -5.2787938    1.9609974   -0.7379917
    C    -5.7848755    0.6400349   -0.7181281
    C    -5.1074529   -0.3618166   -0.0828425
    C    -4.0027877   -0.0426036    0.7221745
    C    -3.5117521    1.2884412    0.7214507
    O    -2.5757419    1.6838333    1.6317316
    C    -4.1496039    2.3047136    0.0671121
    H    -5.8952926    1.3796060    2.7782550
    H    -7.7168892    1.2061944    2.6107462
    H    -7.0119902    1.8345879    4.0646668
    H    -8.0698179    3.6312574    2.7031553
    H    -6.2953505    3.8726697    2.9083058
    H    -4.0859475    7.2489691   -1.5082960
    H    -4.5820568    6.9199211    0.1494961
    H    -5.8007722    7.4144969   -0.9572879
    H    -4.3680913    6.1341926   -3.2645032
    H    -5.3315439    2.2684661   -3.3618540
    H    -7.0380379    2.8704904   -1.7320283
    H    -6.6633550    0.4043346   -1.3115233
    H    -5.4678073   -1.3861614   -0.0989718
    H    -3.5632526   -0.7645005    1.4041353
    H    -2.6388693    1.1260594    2.4264851
    H    -3.7695268    3.3175377   -0.0284134
*
