! RI-MP2 cc-pVTZ cc-pVTZ/c TightSCF KeepDens NoKeepInts

*xyz  0  1
    C    -3.0914357    3.5416788   -7.4659196
    C    -4.2249209    2.5397378   -7.6946770
    O    -5.1834136    2.8842914   -6.7782157
    C    -6.1806543    2.0270320   -6.5523224
    O    -6.4961114    1.0575291   -7.2410459
    C    -7.0919142    2.3964928   -5.4110727
    C    -6.6144972    2.9569461   -4.2899303
    C    -5.2465834    3.4990001   -4.0036148
    N    -7.4233855    3.1473407   -3.1577195
    C    -8.6738559    2.6421119   -3.1217674
    S    -9.5383843    2.6795524   -1.6702639
    N    -9.1715157    2.1053468   -4.2961806
    C    -8.4427994    1.7550399   -5.4497617
    C    -9.1739063    2.4426618   -6.5908048
    C    -9.7639565    1.7646167   -7.6338749
    C   -10.4383791    2.4053685   -8.6540335
    C   -10.4752466    3.8005709   -8.7054556
    C    -9.9758316    4.5482096   -7.5639360
    O   -10.2326070    5.9261113   -7.4803625
    C    -9.3627787    3.8575020   -6.5180399
    H    -2.7640977    3.5257480   -6.4191185
    H    -3.2908882    4.5943327   -7.7011405
    H    -2.2386590    3.2800118   -8.1042704
    H    -4.5394058    2.4259081   -8.7393502
    H    -3.9044597    1.5190630   -7.4523607
    H    -5.1156931    3.7909436   -2.9544100
    H    -5.0566320    4.3922333   -4.6112681
    H    -4.5239176    2.7290442   -4.3004633
    H    -7.0036654    3.5635079   -2.3351586
    H   -10.1446958    1.8289412   -4.2463115
    H    -8.4412200    0.6746659   -5.6394438
    H    -9.7054510    0.6813729   -7.5833184
    H   -10.7649027    1.8083863   -9.5004321
    H   -10.8270388    4.2242456   -9.6414798
    H   -10.6804713    6.0573724   -8.3341290
    H    -8.8483711    4.3507921   -5.6986219
*
