! RI-MP2 cc-pVTZ cc-pVTZ/c TightSCF KeepDens NoKeepInts

*xyz  0  1
    C    15.4780147   -0.7178760   -1.9264236
    C    14.8175826   -0.9571280   -3.2548860
    O    15.5140097   -2.0288841   -3.9383624
    C    14.7752201   -2.7884138   -4.7965231
    O    13.6806692   -2.4553634   -5.2426555
    C    15.1387833   -4.1837656   -4.6939789
    C    16.3601994   -4.5994613   -4.4560495
    C    17.5713852   -3.7723916   -4.4146994
    N    16.6058448   -5.9490888   -4.5615657
    C    15.7514907   -6.8813003   -4.9147512
    S    16.1885950   -8.4500311   -5.1621537
    N    14.4803984   -6.4506883   -5.2005861
    C    13.9767183   -5.1185719   -4.8421518
    C    13.0984769   -5.0766608   -3.6144666
    C    13.7048581   -5.4935961   -2.4044290
    C    12.9447430   -5.5150744   -1.2190997
    C    11.5773396   -5.1762091   -1.3239202
    C    11.0223241   -4.8341490   -2.5068818
    O     9.8165507   -4.3034929   -2.6427536
    C    11.7633428   -4.8578977   -3.6537282
    H    14.8370048   -0.1088502   -1.2772830
    H    16.4739902   -0.2645893   -2.0023121
    H    15.5596769   -1.6249579   -1.3150943
    H    13.7768736   -1.2910250   -3.1620042
    H    14.9825264   -0.1089314   -3.9305694
    H    17.4453078   -2.9128929   -5.0844467
    H    18.3971508   -4.3809301   -4.8032639
    H    17.6785390   -3.4651849   -3.3671634
    H    17.4509332   -6.2855989   -4.1159714
    H    13.9789006   -7.2452348   -5.5789540
    H    13.2954026   -4.7987918   -5.6401156
    H    14.7807238   -5.6411805   -2.4162393
    H    13.4584300   -5.8479539   -0.3220418
    H    11.0410080   -5.1624123   -0.3796988
    H     9.5145230   -4.1355870   -1.7331845
    H    11.3220220   -4.5906486   -4.6093502
*
