! RI-MP2 cc-pVTZ cc-pVTZ/c TightSCF KeepDens NoKeepInts

*xyz  0  1
    C    -5.1976046   -3.2251609  -12.3499839
    C    -4.7018251   -4.6070738  -13.0032391
    O    -3.3359557   -4.7257579  -12.6668263
    C    -2.6810528   -5.8669007  -13.0509444
    O    -3.2153999   -6.7475612  -13.7081425
    C    -1.2323004   -5.8746004  -12.8124890
    C    -0.6053552   -4.9577553  -12.0275574
    C    -1.1031139   -3.7337480  -11.2859769
    N     0.7598671   -4.9529265  -11.9035278
    C     1.4987229   -5.8400027  -12.6651364
    S     3.1003199   -5.9418163  -12.4731562
    N     0.9025571   -6.7539598  -13.4530273
    C    -0.4815302   -7.0583143  -13.3571559
    C    -0.6779748   -8.3289102  -12.5598116
    C    -0.2369060   -8.4695677  -11.2359135
    C    -0.5088146   -9.6468864  -10.4764365
    C    -1.1752693  -10.6755909  -11.0763802
    C    -1.6184399  -10.5616540  -12.4228920
    O    -2.2171975  -11.6528251  -13.0348688
    C    -1.3737505   -9.4146348  -13.1469921
    H    -4.4133628   -2.4786378  -12.1743206
    H    -5.5321915   -3.5376499  -11.3531918
    H    -5.9561323   -2.6760143  -12.9211784
    H    -5.3493065   -5.4022857  -12.6138864
    H    -4.9026920   -4.5600344  -14.0805662
    H    -2.0332029   -3.8723968  -10.7212603
    H    -1.2840120   -2.9236057  -12.0030089
    H    -0.3390126   -3.3496118  -10.5991093
    H     1.3318645   -4.4410417  -11.2426446
    H     1.2937811   -7.4692944  -14.0540319
    H    -0.9137340   -7.3207644  -14.3305569
    H     0.3388364   -7.7463297  -10.6659631
    H    -0.0305112   -9.7102583   -9.5034998
    H    -1.3826333  -11.6083016  -10.5601890
    H    -1.7559102  -12.4524649  -12.7274290
    H    -1.6723045   -9.3315101  -14.1878340
*
