! RI-MP2 cc-pVTZ cc-pVTZ/c TightSCF KeepDens NoKeepInts

*xyz  0  1
    C    -8.2492553   -0.6203058   -9.5472132
    C    -8.6895367   -1.3857000  -10.7636344
    O    -7.5351578   -1.5527292  -11.5131838
    C    -7.5924222   -2.1564753  -12.6991876
    O    -8.5926348   -2.7647202  -13.0929151
    C    -6.5945336   -1.8069646  -13.7653985
    C    -5.4421253   -1.1078097  -13.6329088
    C    -4.8967419   -0.6339812  -12.2492703
    N    -4.7782738   -0.5927538  -14.6682344
    C    -5.0736295   -0.8393992  -15.9651742
    S    -4.1495002    0.0508454  -17.3195671
    N    -6.1253764   -1.6006182  -16.2556839
    C    -6.8388686   -2.3080756  -15.2273381
    C    -6.5067992   -3.7893610  -15.5171876
    C    -5.2588741   -4.2592560  -15.0807581
    C    -4.9529837   -5.5960331  -15.0969030
    C    -5.8588942   -6.5335568  -15.5811706
    C    -7.1547092   -6.1124575  -16.0109931
    O    -8.1322274   -7.0323633  -16.3255920
    C    -7.5029646   -4.7591003  -15.8984541
    H    -9.1837039   -0.3954769   -9.0330602
    H    -7.8232680    0.3277080   -9.8757018
    H    -7.6660247   -1.2306482   -8.8576984
    H    -9.0374425   -2.3470100  -10.3855536
    H    -9.5177256   -0.9703332  -11.3378065
    H    -3.9280990   -0.1790251  -12.4562627
    H    -4.8288518   -1.5073583  -11.6006524
    H    -5.4837390    0.1774074  -11.8189412
    H    -4.0153670    0.0200732  -14.4182019
    H    -6.3362541   -1.7250840  -17.2355507
    H    -7.9047829   -2.1339775  -15.3743662
    H    -4.5109087   -3.6108956  -14.6488017
    H    -3.9724121   -5.8942983  -14.7564341
    H    -5.6563452   -7.5939553  -15.6116486
    H    -8.9917059   -6.6047072  -16.3228881
    H    -8.4465671   -4.4060531  -16.2875207
*
