! ri-mp2 cc-pvtz cc-pvtz/c TightSCF NoKeepInts

%scf
  MaxCore 4096
end
*xyz  0  1
    C       15.8717759   13.4367079   17.3778846
    C       16.2417290   14.1793319   16.0843989
    O       17.3375482   15.0779304   16.3565898
    C       17.1625321   16.4162233   16.1372525
    O       16.4600974   16.8198820   15.2261284
    C       17.6303651   17.2755139   17.2805985
    C       17.4069049   18.6149256   17.3230751
    C       16.6316959   19.4523075   16.3281165
    N       17.9674973   19.3850695   18.3470725
    C       18.9115961   18.9341746   19.2309343
    S       19.6657654   19.9455021   20.3008199
    N       19.2137295   17.5977174   19.1686626
    C       18.4509976   16.6023037   18.3940465
    C       17.6011942   15.7802371   19.3574319
    C       18.0520243   14.5198333   19.7927887
    C       17.2984607   13.7673231   20.7095705
    C       16.0866953   14.2818000   21.2010586
    C       15.6407279   15.5419880   20.7799288
    O       14.4740695   16.0441407   21.2568291
    C       16.3925520   16.2887253   19.8675443
    H       16.7431803   12.9128414   17.7884470
    H       15.0878516   12.6952268   17.1827274
    H       15.4939880   14.1370230   18.1314113
    H       16.5474370   13.4541287   15.3193431
    H       15.3566916   14.7116304   15.7096346
    H       15.6006916   19.0872142   16.2373792
    H       17.0894137   19.3907009   15.3325278
    H       16.5828324   20.5119819   16.6047421
    H       17.7646598   20.3706858   18.3965249
    H       19.8932195   17.2880390   19.8512253
    H       19.1751043   15.9288969   17.9139851
    H       18.9906759   14.1210923   19.4175054
    H       17.6549543   12.7924735   21.0378414
    H       15.5017146   13.7049915   21.9098905
    H       14.1311116   15.4150743   21.9093235
    H       16.0355156   17.2683623   19.5707594
*
