! ri-mp2 cc-pvtz cc-pvtz/c TightSCF NoKeepInts

%scf
  MaxCore 4096
end
*xyz  0  1
    C       15.5863073   13.5448981   15.5082771
    C       15.6581465   14.4392121   16.7571369
    O       16.7816560   15.3229829   16.5929966
    C       16.5628771   16.6705182   16.5679315
    O       15.5876910   17.1486617   16.0142309
    C       17.4402912   17.4201756   17.5330527
    C       17.3634901   18.7665174   17.6886027
    C       16.4349852   19.7211795   16.9687530
    N       18.2312641   19.4218083   18.5672780
    C       19.2679738   18.8261489   19.2345039
    S       20.3124324   19.6920051   20.1806733
    N       19.4008967   17.4707068   19.0736243
    C       18.4476762   16.6022819   18.3593774
    C       17.7595122   15.6734012   19.3557473
    C       18.0872510   14.3050017   19.3947626
    C       17.4515071   13.4431405   20.3042079
    C       16.4830375   13.9541026   21.1850214
    C       16.1598752   15.3176337   21.1542531
    O       15.2268296   15.8143790   22.0047515
    C       16.7932435   16.1726395   20.2471451
    H       15.4249893   14.1538112   14.6096338
    H       14.7574973   12.8317109   15.5924937
    H       16.5175408   12.9790719   15.3819740
    H       14.7161774   14.9919814   16.8778818
    H       15.8037245   13.8168836   17.6495456
    H       15.3887108   19.4987554   17.2148302
    H       16.5432244   19.6201074   15.8813448
    H       16.6194640   20.7718729   17.2214470
    H       18.1502501   20.4178638   18.6954750
    H       20.1531663   17.0549958   19.6075892
    H       19.0277185   15.9870122   17.6570562
    H       18.8328077   13.9066731   18.7115883
    H       17.7109483   12.3859691   20.3257634
    H       15.9903118   13.2928935   21.8903867
    H       14.9395154   15.0891223   22.5796045
    H       16.5340098   17.2258807   20.2450590
*
