! ri-mp2 cc-pvtz cc-pvtz/c TightSCF NoKeepInts

%scf
  MaxCore 4096
end
*xyz  0  1
    C       14.9860396   14.4146889   16.7009566
    C       16.4689887   13.9880121   16.6137972
    O       17.4098803   15.0847339   16.4856182
    C       17.0493776   16.3992629   16.3615623
    O       16.2624336   16.7807381   15.5129737
    C       17.6835650   17.2835369   17.4005589
    C       17.4983136   18.6283129   17.4208843
    C       16.6687118   19.4551057   16.4617649
    N       18.1323608   19.4098955   18.3910578
    C       19.0294897   18.9414718   19.3128745
    S       19.7966635   19.9480466   20.3778894
    N       19.2642752   17.5905834   19.3069686
    C       18.5504516   16.6051545   18.4753348
    C       17.7438238   15.6723396   19.3740566
    C       18.2278943   14.3849013   19.6730709
    C       17.4869197   13.5142180   20.4897642
    C       16.2534754   13.9353715   21.0150912
    C       15.7736919   15.2206447   20.7283708
    O       14.5840386   15.6310010   21.2350536
    C       16.5137542   16.0854793   19.9165062
    H       14.8298126   15.1484574   17.5016156
    H       14.3564170   13.5438141   16.9188428
    H       14.6379427   14.8426713   15.7526290
    H       16.7207298   13.4116134   17.5128970
    H       16.5890492   13.3155347   15.7546827
    H       15.6165678   19.1445753   16.4960449
    H       17.0169481   19.3146219   15.4304631
    H       16.7042697   20.5291432   16.6784437
    H       17.9742539   20.4047540   18.4089056
    H       19.9023269   17.2713428   20.0243906
    H       19.3102749   16.0071495   17.9524790
    H       19.1799464   14.0557594   19.2649796
    H       17.8691179   12.5197746   20.7144638
    H       15.6774346   13.2667653   21.6465272
    H       14.2502432   14.9237410   21.8073573
    H       16.1275162   17.0787837   19.7151233
*
