! ri-mp2 cc-pvtz cc-pvtz/c TightSCF NoKeepInts

%scf
  MaxCore 4096
end
*xyz  0  1
    C       15.4341040   13.9505367   16.7035164
    C       15.3672997   15.1274797   15.7029106
    O       16.4878770   16.0471637   15.7607190
    C       17.5883461   15.8848976   16.5555515
    O       18.1928811   14.8293101   16.6423655
    C       17.8605732   17.0409571   17.4734144
    C       17.4199322   18.3114182   17.2804275
    C       16.6145983   18.8519837   16.1167384
    N       17.7682712   19.3128389   18.1927434
    C       18.6446972   19.1561747   19.2338798
    S       19.0838571   20.4239065   20.2011026
    N       19.1376276   17.8917807   19.4337581
    C       18.6894025   16.6860701   18.7121624
    C       17.9005936   15.7659153   19.6403815
    C       18.2716063   14.4170404   19.7911932
    C       17.5375573   13.5612578   20.6293303
    C       16.4213221   14.0574370   21.3238295
    C       16.0460486   15.3992879   21.1737331
    O       14.9634999   15.8793566   21.8361174
    C       16.7780409   16.2483902   20.3379111
    H       16.2330117   13.2471009   16.4376648
    H       14.4902368   13.3925594   16.6936499
    H       15.6025577   14.3062313   17.7283444
    H       15.2960329   14.7179246   14.6869547
    H       14.4448876   15.6923527   15.8890414
    H       15.5762643   18.5021780   16.1682610
    H       17.0374955   18.5176225   15.1610064
    H       16.5943595   19.9482662   16.0903634
    H       17.4179742   20.2485429   18.0633325
    H       19.7582813   17.7965689   20.2272877
    H       19.5867153   16.1484543   18.3727150
    H       19.1224732   14.0257681   19.2385317
    H       17.8316789   12.5182116   20.7316624
    H       15.8504198   13.3993150   21.9703071
    H       14.6256559   15.1640532   22.3957146
    H       16.4708194   17.2836474   20.2373771
*
