! ri-mp2 cc-pvtz cc-pvtz/c TightSCF NoKeepInts

%scf
  MaxCore 4096
end
*xyz  0  1
    C       14.2975141   15.6758417   16.1847241
    C       15.4353343   15.4102762   17.1867721
    O       16.6246209   15.0888436   16.4343572
    C       17.8344651   15.7370490   16.5103674
    O       18.8452879   15.1468070   16.1776415
    C       17.9176996   16.8959242   17.4471149
    C       17.3317926   18.0870900   17.1913587
    C       16.5474479   18.4653945   15.9559535
    N       17.4830263   19.1438517   18.0914725
    C       18.2705743   19.1051231   19.2131457
    S       18.4291468   20.4166488   20.2073976
    N       18.9152551   17.9205011   19.4753389
    C       18.7618223   16.6732340   18.6995081
    C       18.1622496   15.5554543   19.5466687
    C       18.6832714   14.2513689   19.4641475
    C       18.1174722   13.2055527   20.2120789
    C       17.0173513   13.4637506   21.0472820
    C       16.4900993   14.7595405   21.1261120
    O       15.4174297   15.0095285   21.9180245
    C       17.0550393   15.7990899   20.3805750
    H       14.5446673   16.4929303   15.4993871
    H       13.3730488   15.9371395   16.7140466
    H       14.1029676   14.7778389   15.5847348
    H       15.5564047   16.2786545   17.8430022
    H       15.1695263   14.5555446   17.8228570
    H       16.6152239   17.7011456   15.1720414
    H       16.9312881   19.3965832   15.5199390
    H       15.4875731   18.6165993   16.1936397
    H       17.0300990   20.0260624   17.9102517
    H       19.4723871   17.9157482   20.3205573
    H       19.7636412   16.3566626   18.3730214
    H       19.5207286   14.0441562   18.8010149
    H       18.5274300   12.1998259   20.1349872
    H       16.5752091   12.6573061   21.6230813
    H       15.2121323   14.1913920   22.3958352
    H       16.6277730   16.7935406   20.4555625
*
