! ri-mp2 cc-pvtz cc-pvtz/c TightSCF NoKeepInts

%scf
  MaxCore 4096
end
*xyz  0  1
    C       15.0038349   15.9016432   17.3201022
    C       15.5164375   15.1630804   16.0664124
    O       16.9546823   15.0355866   15.8856351
    C       18.0568350   15.6049950   16.4875358
    O       19.1092352   14.9937132   16.4629557
    C       17.8984126   16.7678141   17.4101003
    C       17.3979251   17.9502594   16.9792878
    C       16.9011496   18.2817747   15.5859331
    N       17.4032081   19.0606092   17.8260306
    C       18.0334677   19.1097950   19.0415942
    S       18.0610529   20.4908910   19.9504608
    N       18.6475930   17.9568040   19.4641174
    C       18.5729312   16.6488616   18.7816865
    C       17.9038635   15.5924438   19.6593461
    C       18.3405952   14.2558434   19.6009198
    C       17.7345333   13.2662357   20.3923200
    C       16.6806812   13.6136329   21.2538481
    C       16.2410581   14.9424146   21.3170782
    O       15.2172464   15.2796768   22.1408781
    C       16.8461200   15.9260906   20.5281302
    H       15.5365995   15.5697522   18.2154376
    H       13.9457642   15.6570114   17.4745585
    H       15.0550840   16.9884733   17.2338225
    H       15.0986822   14.1478064   16.0799918
    H       15.0943800   15.6579977   15.1823258
    H       17.0949524   17.4772754   14.8669550
    H       17.4083954   19.1737887   15.1965120
    H       15.8232901   18.4824488   15.5818380
    H       16.9809513   19.9240417   17.5226516
    H       19.0968223   18.0193491   20.3690530
    H       19.6069987   16.3159730   18.6072134
    H       19.1513729   13.9802829   18.9294398
    H       18.0816593   12.2360365   20.3326589
    H       16.2087360   12.8517542   21.8654205
    H       14.9631774   14.4826191   22.6300983
    H       16.4792715   16.9452242   20.5916507
*
