! RI-MP2 cc-pVTZ cc-pVTZ/c TightSCF KeepDens NoKeepInts

*xyz  0  1
    C    -7.9428074  -12.3782487   -0.4374761
    C    -8.5842398  -12.2721285    0.9081726
    O    -7.6251855  -12.6512972    1.9319591
    C    -7.9830275  -12.6344601    3.2226045
    O    -8.9840251  -12.0841117    3.6619919
    C    -6.9806071  -13.2180517    4.1487647
    C    -5.8057311  -13.8274916    3.8104517
    C    -5.3503973  -14.1765334    2.4024133
    N    -4.9314063  -14.2706054    4.7555430
    C    -5.2889194  -14.3686422    6.0095225
    S    -4.4464787  -15.1830724    7.1911223
    N    -6.2848852  -13.5183366    6.4664824
    C    -7.1377525  -12.7519947    5.5560806
    C    -7.0376188  -11.2021870    5.7955354
    C    -6.0922197  -10.4014337    5.0336493
    C    -5.9195470   -9.0116301    5.2403483
    C    -6.7216400   -8.4092121    6.2212832
    C    -7.4882237   -9.1836572    7.1288582
    O    -8.0983941   -8.6131022    8.1923970
    C    -7.6524502  -10.5519085    6.9064719
    H    -8.7069637  -12.0555327   -1.1551837
    H    -7.6176009  -13.3856777   -0.7247343
    H    -7.1757922  -11.6404416   -0.7030472
    H    -8.8353548  -11.2200378    1.0904853
    H    -9.5482620  -12.7952699    0.9213568
    H    -6.0449122  -14.8886510    1.9401133
    H    -4.3814527  -14.6880272    2.4544720
    H    -5.2592625  -13.3157695    1.7286344
    H    -4.1438325  -14.8074820    4.4128161
    H    -6.5229565  -13.4433984    7.4481507
    H    -8.1237614  -13.0626383    5.9227909
    H    -5.4288999  -10.8464764    4.2978913
    H    -5.1336782   -8.4776768    4.7143254
    H    -6.5924335   -7.3626109    6.4807597
    H    -8.0068060   -7.6841736    7.9177472
    H    -8.2911143  -11.0783956    7.6095477
*
