! RI-MP2 cc-pVTZ cc-pVTZ/c TightSCF KeepDens NoKeepInts

*xyz  0  1
    C     0.6366931    6.6131353   -4.4638707
    C    -0.6172097    5.8015957   -3.8696090
    O    -1.2738452    6.6503934   -2.8653293
    C    -2.0228248    6.0248390   -1.8571825
    O    -2.0609221    4.7994937   -1.7514550
    C    -2.5231122    7.0149179   -0.8958418
    C    -2.5015962    8.3531400   -1.0194557
    C    -1.8817223    9.1270387   -2.0876270
    N    -3.0492963    9.1926332   -0.0350064
    C    -3.5757269    8.7318309    1.1207484
    S    -4.1780940    9.8094547    2.2704603
    N    -3.5624417    7.3467618    1.2654322
    C    -3.1734770    6.4170087    0.2997541
    C    -4.4931809    5.7370225   -0.2227807
    C    -4.6814634    4.3462969   -0.0128399
    C    -5.9097034    3.7209045   -0.3585270
    C    -6.9997656    4.4669132   -0.8117498
    C    -6.9028915    5.8664264   -0.9295546
    O    -7.9633021    6.5844152   -1.3110666
    C    -5.6164760    6.4459210   -0.7178742
    H     1.2854685    6.7830619   -3.5958808
    H     0.3951874    7.5725983   -4.9374691
    H     1.0399496    5.9939048   -5.2744985
    H    -1.3722821    5.5844393   -4.6350527
    H    -0.1823814    4.9097930   -3.4018463
    H    -2.3183955    8.8943544   -3.0665863
    H    -0.8111809    8.9358411   -1.9441901
    H    -1.9382638   10.2114286   -1.9324097
    H    -3.2464676   10.1687193   -0.2203323
    H    -3.9846043    7.0913968    2.1500417
    H    -2.5601947    5.6409274    0.7738574
    H    -3.8077316    3.8315686    0.3758031
    H    -5.9266230    2.6464449   -0.2015356
    H    -7.9428507    3.9563705   -0.9830185
    H    -8.7620838    6.1295577   -0.9920341
    H    -5.6273880    7.5297418   -0.7857969
*
