! RI-MP2 cc-pVTZ cc-pVTZ/c TightSCF KeepDens NoKeepInts

*xyz  0  1
    C     1.7474176    0.4002070   -8.6592961
    C     2.5760915    0.8284569   -9.8777228
    O     2.3560189    2.2843806  -10.1658152
    C     1.2781730    2.7285492  -10.7835389
    O     0.4237918    2.0387225  -11.3566402
    C     1.4164011    4.1694632  -11.1505098
    C     2.3445066    5.0363176  -10.7836011
    C     3.3091438    4.8949847   -9.6293990
    N     2.3983048    6.2617488  -11.3245686
    C     1.4339858    6.7749730  -12.0770561
    S     1.5111113    8.3163729  -12.5807502
    N     0.4575980    5.9745256  -12.5074823
    C     0.4403212    4.5274998  -12.2261153
    C     0.6338649    3.7444799  -13.5490605
    C    -0.4847372    3.2123158  -14.2704765
    C    -0.3347861    2.5165353  -15.4408966
    C     0.9495288    2.2560450  -15.9598675
    C     2.0785724    2.6915317  -15.2856235
    O     3.2893716    2.4134911  -15.8415166
    C     1.9405698    3.3950794  -14.0901556
    H     2.1692890    0.7914854   -7.7254306
    H     1.7343250   -0.6922493   -8.5615260
    H     0.7286355    0.7939476   -8.7604937
    H     3.6079097    0.5847181   -9.5964165
    H     2.3242227    0.1640524  -10.7133772
    H     2.8078207    4.5359146   -8.7222433
    H     3.7725866    5.8305839   -9.2931482
    H     4.1370723    4.2218495   -9.8836089
    H     2.9588194    7.0321384  -10.9806359
    H    -0.1949714    6.4068785  -13.1502813
    H    -0.5928494    4.3671591  -11.8943938
    H    -1.5041160    3.3444320  -13.9200365
    H    -1.1296834    2.0364498  -16.0039705
    H     1.0666140    1.7190943  -16.8965483
    H     3.8950344    2.9103247  -15.2644049
    H     2.7592098    3.7634394  -13.4789783
*
