! RI-MP2 cc-pVTZ cc-pVTZ/c TightSCF KeepDens NoKeepInts

*xyz  0  1
    C    -4.6046447    0.4853632   -4.2787155
    C    -3.2326595    1.1615521   -4.2945117
    O    -2.1820369    0.1915645   -4.0752109
    C    -0.9047454    0.6980003   -4.2085889
    O    -0.6283951    1.8212002   -4.6715612
    C     0.1305035   -0.3463538   -3.8615553
    C     1.4385934   -0.2021663   -4.1219636
    C     2.1990454    1.0105533   -4.8227353
    N     2.2987040   -1.2169823   -3.7965952
    C     1.9593582   -2.4772724   -3.4232591
    S     3.1183870   -3.6391362   -2.9920809
    N     0.5916197   -2.7329236   -3.1720403
    C    -0.4107946   -1.6346771   -3.2051528
    C    -1.0557141   -1.2698352   -1.8076729
    C    -2.3220966   -1.7964807   -1.4694977
    C    -2.9236963   -1.5432762   -0.2090221
    C    -2.1862199   -0.8372595    0.7627666
    C    -0.9697180   -0.2546577    0.4072095
    O    -0.3217830    0.3715511    1.3420758
    C    -0.3863665   -0.4660510   -0.8637638
    H    -4.6206000   -0.2249388   -3.4430090
    H    -4.8427888   -0.1031580   -5.1732097
    H    -5.4109927    1.2253039   -4.2047041
    H    -3.1441345    1.7409642   -5.2216767
    H    -3.1733272    1.8237608   -3.4220732
    H     1.8524893    2.0239540   -4.5858830
    H     2.1385266    0.9036440   -5.9127346
    H     3.2600264    0.9611182   -4.5487549
    H     3.3071186   -1.1236332   -3.7777953
    H     0.3256471   -3.6976075   -3.0151648
    H    -1.1210786   -2.0185760   -3.9476540
    H    -2.8378812   -2.4186449   -2.1949451
    H    -3.9055706   -1.9313951    0.0453057
    H    -2.6279653   -0.6924622    1.7442416
    H     0.5742583    0.5949888    1.0356209
    H     0.6376957   -0.1351503   -1.0093903
*
