! RI-MP2 cc-pVTZ cc-pVTZ/c TightSCF KeepDens NoKeepInts

*xyz  0  1
    C    12.1472730    6.8738066    5.3621989
    C    11.7865898    8.2662458    4.7983190
    O    11.0971528    8.1513518    3.5489080
    C    10.6181436    9.2703305    2.9514667
    O    10.6920929   10.3767966    3.4658855
    C     9.8955081    9.1045663    1.6605375
    C     9.3575448    7.9908688    1.1573053
    C     9.4645804    6.5602418    1.6959428
    N     8.8015595    8.0245658   -0.1137895
    C     9.0299123    9.0464634   -1.0436739
    S     8.5002551    8.8615145   -2.6268666
    N     9.7131264   10.1120796   -0.5927499
    C     9.8758450   10.3404907    0.8744803
    C     8.7765943   11.3287463    1.2104619
    C     7.6094401   10.8912837    1.9697787
    C     6.5325015   11.8293835    2.1519650
    C     6.5849024   13.0957736    1.5722225
    C     7.6704791   13.5271411    0.8567214
    O     7.6601539   14.7254448    0.1496063
    C     8.7178823   12.6314862    0.6308742
    H    11.3474412    6.1234251    5.3426040
    H    12.5187141    6.9049546    6.3938243
    H    13.0197387    6.5027236    4.8105766
    H    11.1121241    8.7111685    5.5401613
    H    12.6968824    8.8750131    4.7353952
    H     8.6417178    5.9249594    1.3459375
    H     9.3486305    6.6099931    2.7855620
    H    10.4641407    6.1487883    1.5094930
    H     8.2252872    7.2641330   -0.4538200
    H    10.0189532   10.8109006   -1.2591473
    H    10.8179254   10.8860892    1.0086316
    H     7.6168910    9.8916903    2.3942237
    H     5.7268437   11.4787544    2.7902213
    H     5.6958276   13.7046039    1.7073801
    H     6.7838789   15.0667968    0.3993074
    H     9.5926039   12.9976251    0.1015346
*
