! RI-MP2 cc-pVTZ cc-pVTZ/c TightSCF KeepDens NoKeepInts

*xyz  0  1
    C     5.4801521    7.5816505   -6.9554568
    C     6.7505462    7.6686612   -7.8478409
    O     6.7763726    8.9916388   -8.4860687
    C     6.4302429    9.1972615   -9.7231322
    O     5.9487432    8.2960278  -10.3704871
    C     6.7441832   10.5271375  -10.2749130
    C     6.8764608   11.6148683   -9.5498475
    C     6.8246299   11.8217103   -8.0009478
    N     7.2715017   12.8255186  -10.1349761
    C     7.3577377   12.9807073  -11.4911903
    S     7.7718006   14.3931057  -12.2153724
    N     7.2214202   11.8762129  -12.2509035
    C     6.9285418   10.5290131  -11.7904385
    C     7.9189496    9.5126061  -12.3297991
    C     9.3344129    9.6121056  -12.1535114
    C    10.2362790    8.6866897  -12.6402658
    C     9.7078475    7.5889667  -13.3778524
    C     8.3024766    7.3636930  -13.4444684
    O     7.7594877    6.2039442  -14.0285588
    C     7.4495670    8.3165147  -12.9394061
    H     4.6760418    7.0989854   -7.5243510
    H     5.1686034    8.6253652   -6.8258865
    H     5.6597100    7.0142231   -6.0340585
    H     7.6327173    7.6572802   -7.1960467
    H     6.7589215    6.8159897   -8.5378197
    H     7.4825940   11.0847397   -7.5243430
    H     5.8016541   11.5228292   -7.7413697
    H     6.8839594   12.8411767   -7.6005008
    H     7.4634508   13.5571107   -9.4612583
    H     7.3299391   12.1338248  -13.2244671
    H     5.9560952   10.2631615  -12.2227116
    H     9.6690334   10.5505295  -11.7213244
    H    11.3063176    8.7874163  -12.4844854
    H    10.4058062    6.9041689  -13.8504093
    H     6.7882984    6.1454339  -14.0186105
    H     6.3950425    8.2732063  -13.1953329
*
