! RI-MP2 cc-pVTZ cc-pVTZ/c TightSCF KeepDens NoKeepInts

*xyz  0  1
    C    -6.4897493   -9.5862583  -11.6148836
    C    -4.9569036   -9.4571827  -11.5091032
    O    -4.3913682   -9.0627130  -10.2240492
    C    -4.3092744  -10.0110060   -9.2829528
    O    -4.5393824  -11.1837937   -9.4877639
    C    -4.4267120   -9.4569987   -7.9226766
    C    -4.1191053   -8.2313967   -7.6131348
    C    -3.4872236   -7.0734226   -8.3791291
    N    -4.1683212   -7.8213780   -6.3020165
    C    -4.5518188   -8.6321208   -5.3014285
    S    -4.4230716   -8.0986726   -3.7382885
    N    -4.9048097   -9.9356568   -5.6318890
    C    -5.0238257  -10.4406767   -6.9872263
    C    -6.5319592  -10.6600038   -7.2256431
    C    -7.1470723  -11.8507900   -6.7014957
    C    -8.5770102  -12.0298756   -6.9152883
    C    -9.3039046  -11.0684972   -7.6843896
    C    -8.6896192   -9.8928014   -8.1640109
    O    -9.4347153   -8.9378871   -8.7878135
    C    -7.3778005   -9.6347251   -7.8144100
    H    -6.9193664   -9.8806564  -10.6495119
    H    -6.9088443  -10.2371299  -12.3920041
    H    -6.9639789   -8.6206013  -11.8288983
    H    -4.5546801  -10.4457509  -11.7623597
    H    -4.6717257   -8.7162552  -12.2660046
    H    -4.0322536   -6.8484226   -9.3040666
    H    -2.4950604   -7.4722609   -8.6235260
    H    -3.3307921   -6.1435170   -7.8187722
    H    -4.0529091   -6.8401209   -6.0789003
    H    -5.0834292  -10.6423157   -4.9285436
    H    -4.4610143  -11.3779689   -7.0761996
    H    -6.5396791  -12.6252348   -6.2424696
    H    -9.0127975  -12.9689539   -6.5872375
    H   -10.3167919  -11.2144696   -8.0479106
    H    -8.8656184   -8.1560394   -8.8953867
    H    -6.9165410   -8.7137029   -8.1584356
*
