! RI-MP2 cc-pVTZ cc-pVTZ/c TightSCF KeepDens NoKeepInts

*xyz  0  1
    C    -4.8435224    1.6644947   13.4559337
    C    -5.4001269    1.4361974   12.0999979
    O    -6.7655847    1.8943828   12.1663082
    C    -7.6267001    1.6887872   11.1227737
    O    -7.2634314    0.9552054   10.1937310
    C    -8.9817413    2.2129360   11.3431658
    C    -9.9207977    2.1247215   10.4085822
    C    -9.7467819    1.5847540    8.9607708
    N   -11.1162755    2.7562564   10.6282089
    C   -11.4802949    3.3286201   11.7860586
    S   -12.9517355    4.1235993   11.9932489
    N   -10.6028707    3.2520380   12.8673963
    C    -9.3249648    2.5755791   12.8575237
    C    -9.2814425    1.3183271   13.6994058
    C   -10.1915849    0.2108841   13.4364241
    C   -10.1601546   -0.9380840   14.2102972
    C    -9.2188946   -1.0264479   15.2521407
    C    -8.4075906    0.1149936   15.5591735
    O    -7.6289045    0.0720308   16.6509651
    C    -8.5108108    1.2814257   14.8379123
    H    -5.0603184    0.9307980   14.2419807
    H    -5.0059798    2.6615525   13.8833382
    H    -3.7605153    1.6697372   13.2819861
    H    -4.9793048    2.0653920   11.3061382
    H    -5.2659643    0.3759374   11.8529380
    H   -10.5576661    1.8804012    8.2838266
    H    -9.7727343    0.4886554    8.9278340
    H    -8.8655981    2.0341866    8.4867297
    H   -11.7903241    2.7864426    9.8727507
    H   -11.0039048    3.6700685   13.6982926
    H    -8.5327601    3.2460630   13.2125739
    H   -10.8123098    0.2278518   12.5454646
    H   -10.8409232   -1.7352411   13.9265805
    H    -9.2426099   -1.8939139   15.9050890
    H    -7.4202664   -0.8621896   16.8254135
    H    -7.8817328    2.0913989   15.1951249
*
