! RI-MP2 cc-pVTZ cc-pVTZ/c TightSCF KeepDens NoKeepInts

*xyz  0  1
    C     9.0960864    6.1626631   11.6122974
    C     9.3009673    4.8197182   10.9000204
    O     8.0417038    4.1601317   10.9924112
    C     7.5655112    3.6380711   12.1528925
    O     8.2324703    3.5764234   13.1405413
    C     6.2159510    3.0317241   12.0337915
    C     5.4902314    2.8418274   10.8897898
    C     6.0402136    2.8299954    9.4724795
    N     4.1605813    2.6107249   10.9407357
    C     3.3712648    2.7409719   11.9846977
    S     1.7132916    2.4224506   11.8626883
    N     4.0668668    2.9697535   13.1858224
    C     5.5359918    2.7874003   13.3504797
    C     5.9288509    1.5079522   14.0063466
    C     6.1968064    1.4819202   15.4492774
    C     6.4956955    0.2121142   15.9975565
    C     6.4994740   -0.9759088   15.2581892
    C     6.2118680   -0.9094126   13.9028784
    O     6.2562258   -2.0261104   13.1103857
    C     5.8493873    0.2727179   13.3019821
    H     8.1198394    6.6316861   11.4386640
    H     9.8559212    6.9269333   11.4080399
    H     9.2081545    6.0485819   12.6974762
    H     9.5039355    4.9951971    9.8364412
    H    10.0912815    4.1467034   11.2544878
    H     5.4633890    2.4062298    8.6412838
    H     6.9666326    2.2480383    9.3933375
    H     6.2733908    3.8669390    9.2012488
    H     3.8099497    2.2889951   10.0465804
    H     3.4606696    2.8567348   13.9893883
    H     5.7164097    3.6281882   14.0314458
    H     6.1626354    2.4490605   15.9420938
    H     6.9251214    0.1631067   16.9938449
    H     6.6853701   -1.9152669   15.7704831
    H     6.1269031   -2.7488649   13.7488455
    H     5.6987092    0.2634850   12.2265255
*
