! RI-MP2 cc-pVTZ cc-pVTZ/c TightSCF KeepDens NoKeepInts

*xyz  0  1
    C     9.8692839    9.7217722   -7.9589633
    C     9.3843476    9.1062427   -6.6472808
    O     9.3204247    7.7035314   -6.7606842
    C     8.4418680    7.0467722   -5.9842966
    O     7.7336510    7.5952845   -5.1763893
    C     8.2715922    5.6033182   -6.2917488
    C     7.5056150    4.7382695   -5.6224025
    C     6.9311986    4.9967580   -4.2319788
    N     7.5305179    3.3149073   -5.8722968
    C     8.3359130    2.8038913   -6.8370192
    S     8.6699234    1.2026771   -6.7573074
    N     9.0704495    3.6809243   -7.5727648
    C     9.0123739    5.1092668   -7.5294292
    C     8.4355916    5.5635660   -8.8656696
    C     9.2424920    6.2753924   -9.7460599
    C     8.6982061    6.7065482  -11.0118456
    C     7.3366081    6.4826863  -11.4003324
    C     6.5489753    5.7377628  -10.4758244
    O     5.2972126    5.3968903  -10.8672473
    C     7.0966506    5.3491881   -9.2781852
    H     9.0623845   10.1630514   -8.5567670
    H    10.3982972    9.0567663   -8.6525783
    H    10.4794579   10.5905097   -7.6829504
    H    10.1593882    9.2868113   -5.8923642
    H     8.4736702    9.6581240   -6.3840636
    H     6.4981845    4.1568815   -3.6749424
    H     6.1216403    5.7364563   -4.2575003
    H     7.6021428    5.4821958   -3.5126870
    H     7.1287252    2.6793684   -5.1936073
    H     9.8142800    3.2546107   -8.1121528
    H    10.0042167    5.5629963   -7.4129078
    H    10.2797563    6.4227466   -9.4601134
    H     9.3899798    7.1578849  -11.7169272
    H     6.9969514    6.6188838  -12.4228226
    H     4.7550040    5.0994640  -10.1160637
    H     6.4529948    4.8438318   -8.5642396
*
