! ri-mp2 cc-pvtz cc-pvtz/c TightSCF  NoKeepInts

%scf
  MaxCore 4096
end
*xyz  0  1
    C       15.4519417   14.1292675   16.2414957
    C       15.1966136   15.5506990   15.7117865
    O       16.3441924   15.9402772   14.9365432
    C       16.7941036   17.2317451   14.8997123
    O       17.1085087   17.7214728   13.8304108
    C       16.9060980   17.9468613   16.2217820
    C       16.9834635   19.3024551   16.1317412
    C       16.3828704   20.1907773   15.0606986
    N       17.6185998   20.0427124   17.1301119
    C       18.5116197   19.5157717   18.0200882
    S       19.4011870   20.4642099   19.0421188
    N       18.6617007   18.1541884   17.9855915
    C       17.7707102   17.2178961   17.2726875
    C       16.9584968   16.5148610   18.3548480
    C       17.3872558   15.2724362   18.8577679
    C       16.6630120   14.6208147   19.8700664
    C       15.5081339   15.2236579   20.3964098
    C       15.0926832   16.4733792   19.9178480
    O       13.9835594   17.0635662   20.4293773
    C       15.8145394   17.1188332   18.9091775
    H       16.4462257   14.0450449   16.6915379
    H       15.3927400   13.4021962   15.4221567
    H       14.7042868   13.8577172   16.9966923
    H       14.2942146   15.5675089   15.0866688
    H       15.0268815   16.2254306   16.5567377
    H       17.1123263   20.3718672   14.2601635
    H       16.0621857   21.1621654   15.4553871
    H       15.5041174   19.7220078   14.6006448
    H       17.5582251   21.0485649   17.1214110
    H       19.3246248   17.7933808   18.6597190
    H       18.4373597   16.5153970   16.7511751
    H       18.2839135   14.8062648   18.4572857
    H       16.9995597   13.6560979   20.2466096
    H       14.9463773   14.7248830   21.1796156
    H       13.6697137   16.5106414   21.1612301
    H       15.4849583   18.0949499   18.5707020
*
