! ri-mp2 cc-pvtz cc-pvtz/c TightSCF  NoKeepInts

%scf
  MaxCore 4096
end
*xyz  0  1
    C       15.4512666   14.0367713   16.0646443
    C       15.2888924   15.3693241   15.3149227
    O       16.5776106   15.9960188   15.2184305
    C       16.5739988   17.3503607   15.0722436
    O       16.2110182   17.8537942   14.0245946
    C       16.8775397   18.0802378   16.3541729
    C       16.9491375   19.4389648   16.2978358
    C       16.3107056   20.3712167   15.2878652
    N       17.6588314   20.1432978   17.2734530
    C       18.5816605   19.5844682   18.1128507
    S       19.5286650   20.4997835   19.1134617
    N       18.7105754   18.2223409   18.0464892
    C       17.7911213   17.3162699   17.3333813
    C       17.0045108   16.5481930   18.3901464
    C       17.5060659   15.3258843   18.8757593
    C       16.8079559   14.6044894   19.8587849
    C       15.5993239   15.1113764   20.3651390
    C       15.1025394   16.3339971   19.8937016
    O       13.9387820   16.8292871   20.3846890
    C       15.7997806   17.0508028   18.9162566
    H       16.2028608   13.4054063   15.5747359
    H       14.5012828   13.4891234   16.0810300
    H       15.7600950   14.2061683   17.1010952
    H       14.8783237   15.1998054   14.3104767
    H       14.5889040   16.0065945   15.8729940
    H       15.2927279   20.0434160   15.0419232
    H       16.8873509   20.3819973   14.3538345
    H       16.2378884   21.4040482   15.6484125
    H       17.6055994   21.1490863   17.2994451
    H       19.3891715   17.8366768   18.6903161
    H       18.4286078   16.6284552   16.7590976
    H       18.4403820   14.9310436   18.4852860
    H       17.2039972   13.6588379   20.2253666
    H       15.0565474   14.5581960   21.1246886
    H       13.6410332   16.2313083   21.0869882
    H       15.4022462   18.0029577   18.5834876
*
