! ri-mp2 cc-pvtz cc-pvtz/c TightSCF NoKeepInts

%scf
  MaxCore 4096
end
*xyz  0  1
    C       14.4609780   15.0397176   14.8251073
    C       15.9896449   14.8117302   14.8070716
    O       16.7099747   15.8484665   15.5108805
    C       16.4241372   17.1824015   15.3834414
    O       15.8868915   17.6369996   14.3881092
    C       16.8257058   17.9675328   16.6070357
    C       16.8190049   19.3263368   16.5175926
    C       16.0511640   20.1996564   15.5456821
    N       17.5779838   20.0911299   17.4078880
    C       18.5909552   19.6015314   18.1849892
    S       19.5635068   20.5901740   19.0862282
    N       18.7726830   18.2439949   18.1559538
    C       17.8519308   17.2782411   17.5266667
    C       17.1405406   16.4951404   18.6244265
    C       17.2760651   15.0962522   18.6948374
    C       16.6191744   14.3633531   19.6976429
    C       15.8187794   15.0345559   20.6377599
    C       15.6797743   16.4276528   20.5697439
    O       14.9048573   17.0779130   21.4740363
    C       16.3348182   17.1542484   19.5706152
    H       14.1144917   15.2795966   15.8381728
    H       13.9411002   14.1320152   14.4959261
    H       14.1609390   15.8494211   14.1492917
    H       16.2199372   13.8426571   15.2679096
    H       16.3277901   14.7749405   13.7629945
    H       16.5252450   20.1865229   14.5558770
    H       15.9849060   21.2443266   15.8715051
    H       15.0233761   19.8346533   15.4236476
    H       17.4774190   21.0935668   17.4123268
    H       19.5125296   17.9065653   18.7582729
    H       18.4879216   16.6100839   16.9293750
    H       17.8894208   14.5748098   17.9648119
    H       16.7304473   13.2814677   19.7435657
    H       15.3091115   14.4730793   21.4137927
    H       14.5670521   16.4172266   22.0969960
    H       16.2167430   18.2320386   19.5378263
*
