! ri-mp2 cc-pvtz cc-pvtz/c TightSCF NoKeepInts

%scf
  MaxCore 4096
end
*xyz  0  1
    C       14.3663324   15.3120825   15.6556872
    C       15.8314733   14.8213164   15.6945282
    O       16.8206018   15.8747054   15.5785115
    C       16.5109686   17.1901271   15.3680409
    O       15.8663640   17.5525273   14.3995037
    C       17.0127962   18.0918905   16.4639948
    C       17.0208597   19.4409081   16.3095132
    C       16.3421976   20.2415868   15.2173999
    N       17.7121105   20.2635066   17.2018884
    C       18.5657151   19.8101237   18.1708247
    S       19.4214724   20.8432731   19.1383328
    N       18.6918762   18.4489476   18.2857903
    C       17.9003825   17.4498811   17.5438680
    C       17.1666467   16.4848652   18.4662686
    C       17.7065679   15.2147206   18.7402527
    C       17.0257069   14.3156205   19.5782336
    C       15.7969128   14.6911678   20.1477638
    C       15.2610761   15.9589444   19.8821716
    O       14.0748880   16.3241260   20.4299662
    C       15.9413706   16.8520084   19.0486802
    H       14.1845092   16.0794807   16.4186698
    H       13.6846183   14.4763590   15.8538795
    H       14.1082567   15.7204006   14.6705650
    H       15.9973442   14.2846567   16.6374477
    H       15.9819577   14.1012208   14.8799264
    H       16.7948553   20.0248164   14.2413036
    H       16.4014738   21.3245934   15.3771110
    H       15.2785720   19.9791843   15.1501604
    H       17.6460186   21.2649237   17.1134316
    H       19.3041711   18.1452693   19.0322065
    H       18.6979348   16.9267047   16.9971407
    H       18.6541181   14.9216138   18.2957000
    H       17.4501965   13.3343955   19.7844260
    H       15.2672525   14.0003287   20.7956727
    H       13.7857429   15.6027802   21.0089925
    H       15.5136591   17.8309431   18.8601462
*
