! ri-mp2 cc-pvtz cc-pvtz/c TightSCF  NoKeepInts

%scf
  MaxCore 4096
end
*xyz  0  1
    C       14.9653744   14.5575813   14.3924934
    C       15.0779729   15.9943253   13.8339456
    O       15.6816930   16.9454310   14.7468013
    C       16.6560031   16.6671502   15.6685439
    O       17.3128381   15.6395403   15.6507495
    C       16.8374417   17.7080152   16.7460021
    C       16.6041297   19.0242213   16.4711589
    C       15.7962937   19.6451254   15.3466740
    N       17.1730654   20.0130447   17.2804246
    C       18.2276809   19.8158665   18.1278030
    S       18.9691378   21.0703579   18.9100300
    N       18.6473293   18.5209012   18.2751372
    C       17.9257779   17.3376864   17.7687811
    C       17.3025358   16.5817852   18.9375432
    C       17.4725211   15.1887733   19.0364551
    C       16.8979069   14.4699464   20.0980052
    C       16.1416861   15.1491450   21.0682981
    C       15.9615021   16.5355242   20.9686302
    O       15.2237876   17.1921560   21.8991930
    C       16.5345110   17.2484513   19.9106639
    H       15.9294013   14.0354980   14.3585849
    H       14.2593528   13.9731838   13.7904005
    H       14.6025761   14.5644061   15.4279696
    H       15.6712843   15.9568447   12.9109964
    H       14.0773539   16.3557393   13.5642656
    H       14.7723571   19.2511595   15.3398925
    H       16.2533895   19.4302355   14.3726632
    H       15.7174728   20.7358372   15.4310819
    H       16.8934470   20.9736495   17.1632780
    H       19.4166251   18.3944838   18.9203077
    H       18.6882727   16.7128401   17.2817557
    H       18.0447784   14.6601489   18.2772301
    H       17.0360317   13.3921129   20.1620027
    H       15.6945785   14.5980047   21.8888416
    H       14.9414662   16.5404400   22.5580949
    H       16.3794243   18.3203879   19.8533015
*
