! ri-mp2 cc-pvtz cc-pvtz/c TightSCF NoKeepInts

%scf
  MaxCore 4096
end
*xyz  0  1
    C       15.5910134   14.1664447   14.6126189
    C       14.7935972   15.3723122   15.1371098
    O       15.7136687   16.2061718   15.8631714
    C       15.6033088   17.5682155   15.8135944
    O       14.7798723   18.1301065   15.1112042
    C       16.5857755   18.2597653   16.7216160
    C       16.8135615   19.5941703   16.6114366
    C       15.9978446   20.6022701   15.8283340
    N       17.9029801   20.1938283   17.2475286
    C       18.9193809   19.5071603   17.8542742
    S       20.2315341   20.2769635   18.5034491
    N       18.8042548   18.1404609   17.8767736
    C       17.6282235   17.3730585   17.4248260
    C       17.0548968   16.4826887   18.5196493
    C       17.1683577   15.0825253   18.4382074
    C       16.6413665   14.2638923   19.4512997
    C       15.9995838   14.8508099   20.5554971
    C       15.8894097   16.2457839   20.6404600
    O       15.2715672   16.8148672   21.7060779
    C       16.4147681   17.0578352   19.6304672
    H       14.9381949   13.4916032   14.0456936
    H       16.0292798   13.6019019   15.4449054
    H       16.4012619   14.4967127   13.9507212
    H       14.3619584   15.9015588   14.2766162
    H       13.9753327   15.0463994   15.7923499
    H       14.9363941   20.5337203   16.0992594
    H       16.0745055   20.4089124   14.7507927
    H       16.3115148   21.6382053   16.0027643
    H       18.0104785   21.1951134   17.2186501
    H       19.5533559   17.6627189   18.3615726
    H       18.0865754   16.7655389   16.6316534
    H       17.6590827   14.6283309   17.5816413
    H       16.7302637   13.1814382   19.3786958
    H       15.5910186   14.2229482   21.3403926
    H       14.9965473   16.0998210   22.2992206
    H       16.3262708   18.1357460   19.7154754
*
