! ri-mp2 cc-pvtz cc-pvtz/c TightSCF  NoKeepInts

%scf
  MaxCore 4096
end
*xyz  0  1
    C       15.1162358   14.9828158   13.2841519
    C       14.7420008   15.5174915   14.6778197
    O       15.5819820   16.6510792   14.9568776
    C       16.6556448   16.4878965   15.7834775
    O       17.2814263   15.4407244   15.8238741
    C       16.8555317   17.5890446   16.7898078
    C       16.6580338   18.8812232   16.4024484
    C       15.8910828   19.4121320   15.2059620
    N       17.2470831   19.9209615   17.1287472
    C       18.2961619   19.7686042   17.9926312
    S       19.0668937   21.0647946   18.6716352
    N       18.6863607   18.4801255   18.2452700
    C       17.9362842   17.2763261   17.8377087
    C       17.2982369   16.6306278   19.0628196
    C       17.4373768   15.2465450   19.2728053
    C       16.8484228   14.6280604   20.3883498
    C       16.1087199   15.3994855   21.3007418
    C       15.9592645   16.7771272   21.0903786
    O       15.2375969   17.5224766   21.9649632
    C       16.5464499   17.3900598   19.9788744
    H       15.0023016   15.7653475   12.5238859
    H       14.4720307   14.1387770   13.0097468
    H       16.1574622   14.6358944   13.2716060
    H       13.6917635   15.8360424   14.6668324
    H       14.8535325   14.7326517   15.4391569
    H       14.8408453   19.0974496   15.2463064
    H       16.3223924   19.0398210   14.2680984
    H       15.8972685   20.5074228   15.1485006
    H       16.9906171   20.8748809   16.9308992
    H       19.4534204   18.3893599   18.8991322
    H       18.6810657   16.5955411   17.4005720
    H       17.9977077   14.6463521   18.5592310
    H       16.9633564   13.5561341   20.5391908
    H       15.6509261   14.9260178   22.1628798
    H       14.9459628   16.9334405   22.6767500
    H       16.4155577   18.4572655   19.8358676
*
