! ri-mp2 cc-pvtz cc-pvtz/c TightSCF  NoKeepInts

%scf
  MaxCore 4096
end
*xyz  0  1
    C       14.1852031   14.9376452   15.0558034
    C       15.0228657   16.1605830   15.4627923
    O       16.3553907   15.9481823   14.9585952
    C       17.4384855   16.6797424   15.3730916
    O       18.5504680   16.4979051   14.9146490
    C       17.1851271   17.6113454   16.5079400
    C       16.8624475   18.8734941   16.1259378
    C       16.2814204   19.3200590   14.7973728
    N       17.0987708   19.9480764   16.9859006
    C       17.9742624   19.9099655   18.0370516
    S       18.3545955   21.2632382   18.9079309
    N       18.5379313   18.6896135   18.3096147
    C       18.1088452   17.4088675   17.7129064
    C       17.4011237   16.5559762   18.7573047
    C       17.8140565   15.2293141   18.9772807
    C       17.1542896   14.4221289   19.9191807
    C       16.0691611   14.9440874   20.6437907
    C       15.6509026   16.2632651   20.4224570
    O       14.5968161   16.7667910   21.1123536
    C       16.3090397   17.0644589   19.4840906
    H       14.6121488   14.0195103   15.4788783
    H       14.1575229   14.8336949   13.9638219
    H       13.1549548   15.0363197   15.4187972
    H       14.5857822   17.0761255   15.0453358
    H       15.0224408   16.2295919   16.5593927
    H       16.4214730   18.5843909   13.9959484
    H       16.7625132   20.2436093   14.4498955
    H       15.2060803   19.5159059   14.8867338
    H       16.7295117   20.8594527   16.7644024
    H       19.1822752   18.6844853   19.0901422
    H       19.0265077   16.9054223   17.3730750
    H       18.6477676   14.8200468   18.4114908
    H       17.4830263   13.3970574   20.0826550
    H       15.5559574   14.3233667   21.3709808
    H       14.3178678   16.0929679   21.7507474
    H       15.9699677   18.0833134   19.3296589
*
