! ri-mp2 cc-pvtz cc-pvtz/c TightSCF  NoKeepInts

%scf
  MaxCore 4096
end
*xyz  0  1
    C       13.8730663   15.3998287   14.8776460
    C       14.9582666   16.0976203   15.7133445
    O       16.1071006   16.2729038   14.8607649
    C       17.2259490   16.9478257   15.2745408
    O       18.2852553   16.8689024   14.6816518
    C       17.0679177   17.7254580   16.5354971
    C       16.6670351   19.0045662   16.3290182
    C       15.9788648   19.5420923   15.0899043
    N       16.9748225   19.9985611   17.2607965
    C       17.9517478   19.8811894   18.2121776
    S       18.3904898   21.1510617   19.1762416
    N       18.5672077   18.6583899   18.3005248
    C       18.1193046   17.4329987   17.6091191
    C       17.5527190   16.4394907   18.6142049
    C       18.0330302   15.1175931   18.6424552
    C       17.4993111   14.1824726   19.5450577
    C       16.4732826   14.5709337   20.4233645
    C       15.9881344   15.8854444   20.3936364
    O       14.9901897   16.2608150   21.2324585
    C       16.5204062   16.8139338   19.4935363
    H       12.9712983   15.2311643   15.4787872
    H       14.2311302   14.4277899   14.5154826
    H       13.5991646   16.0116648   14.0090772
    H       14.5700418   17.0599482   16.0701343
    H       15.2191764   15.4789780   16.5832500
    H       15.1784291   18.8773251   14.7454270
    H       16.7001183   19.6438831   14.2677263
    H       15.5292489   20.5283501   15.2579586
    H       16.5728349   20.9179940   17.1675728
    H       19.2868532   18.5961299   19.0095202
    H       19.0112940   17.0110593   17.1218774
    H       18.8214831   14.8122371   17.9584467
    H       17.8798856   13.1623633   19.5604888
    H       16.0576956   13.8513902   21.1213237
    H       14.8029825   15.5109435   21.8173657
    H       16.1312623   17.8266977   19.4876208
*
