! ri-mp2 cc-pvtz cc-pvtz/c TightSCF NoKeepInts

%scf
  MaxCore 4096
end
*xyz  0  1
    C       14.6368742   15.2085229   15.7036769
    C       16.0113397   14.8320705   15.1051260
    O       16.9957880   15.8603947   15.3416547
    C       16.6714976   17.1806727   15.2058926
    O       16.1316789   17.5929785   14.1938780
    C       16.9291334   17.9699650   16.4632512
    C       16.8648793   19.3273051   16.3839411
    C       16.1559976   20.1727720   15.3452829
    N       17.5007336   20.1153253   17.3474248
    C       18.4572978   19.6628083   18.2137852
    S       19.2911438   20.6836383   19.2127564
    N       18.7071220   18.3158384   18.1893877
    C       17.8994842   17.3167271   17.4647554
    C       17.1286129   16.4788657   18.4781380
    C       17.3587052   15.0936203   18.5695542
    C       16.6401238   14.3082403   19.4865101
    C       15.6830103   14.9129216   20.3191096
    C       15.4514397   16.2925271   20.2312066
    O       14.5252749   16.8783911   21.0310539
    C       16.1676540   17.0713202   19.3170670
    H       14.7321241   15.4711847   16.7650688
    H       13.9466580   14.3598046   15.6270693
    H       14.1818054   16.0529445   15.1710288
    H       16.3603088   13.8878260   15.5423061
    H       15.8954771   14.6809213   14.0235300
    H       16.7055428   20.1601816   14.3952530
    H       16.0422386   21.2193207   15.6513644
    H       15.1493064   19.7825582   15.1482621
    H       17.3525497   21.1118907   17.3512220
    H       19.4033326   18.0058523   18.8551875
    H       18.6183982   16.6896835   16.9188386
    H       18.0939390   14.6233440   17.9218018
    H       16.8256941   13.2374076   19.5501490
    H       15.1254579   14.3107965   21.0290296
    H       14.1712366   16.1936920   21.6181799
    H       15.9751398   18.1376869   19.2662568
*
