! ri-mp2 cc-pvtz cc-pvtz/c TightSCF NoKeepInts

%scf
  MaxCore 4096
end
*xyz  0  1
    C       13.9375559   15.6548799   13.5541953
    C       15.4115287   15.5220365   13.9724030
    O       15.6868852   16.5770178   14.9102818
    C       16.6955878   16.4282015   15.8180866
    O       17.4078029   15.4363596   15.8278501
    C       16.8307153   17.5300167   16.8396555
    C       16.4498580   18.8024854   16.5268909
    C       15.5075865   19.2862789   15.4403346
    N       16.9672165   19.8791529   17.2543653
    C       18.0865334   19.8247135   18.0376605
    S       18.7484136   21.1806616   18.7148495
    N       18.6400439   18.5843425   18.2116749
    C       18.0092278   17.3141111   17.8045362
    C       17.5362867   16.5627487   19.0445829
    C       17.8621496   15.2034300   19.2033745
    C       17.4286588   14.4895107   20.3330913
    C       16.6579737   15.1391237   21.3122218
    C       16.3230372   16.4908340   21.1538276
    O       15.5712758   17.1179209   22.0934887
    C       16.7558676   17.1989468   20.0281724
    H       13.2787016   15.5691655   14.4273681
    H       13.6675857   14.8655701   12.8420341
    H       13.7566358   16.6256328   13.0763125
    H       15.5533495   14.5372582   14.4391212
    H       16.0768644   15.5960463   13.1022256
    H       15.9313883   19.1027642   14.4451176
    H       15.2954786   20.3601991   15.5081737
    H       14.5427612   18.7673228   15.5025333
    H       16.5873902   20.8017850   17.1157130
    H       19.4553046   18.5637842   18.8108825
    H       18.7978007   16.7418261   17.2948236
    H       18.4453846   14.6956537   18.4384090
    H       17.6860522   13.4375582   20.4428177
    H       16.3193377   14.5913270   22.1852584
    H       15.3959271   16.4776543   22.7991150
    H       16.4828329   18.2436802   19.9265514
*
