! ri-mp2 cc-pvtz cc-pvtz/c TightSCF NoKeepInts

%scf
  MaxCore 4096
end
*xyz  0  1
    C       14.9555018   15.1589818   15.8401821
    C       15.1010591   15.8938670   14.4857734
    O       16.2145589   16.8174216   14.4449175
    C       17.2177684   16.7638171   15.3668096
    O       18.0479288   15.8711664   15.3442298
    C       17.0816490   17.7325435   16.5072620
    C       16.7355658   19.0202634   16.2309495
    C       16.0972008   19.5795368   14.9740475
    N       17.0215511   20.0286548   17.1563753
    C       17.9264957   19.9131302   18.1757896
    S       18.3481675   21.2025635   19.1215463
    N       18.4794243   18.6721719   18.3550411
    C       18.0206309   17.4394688   17.6857415
    C       17.3065156   16.5357913   18.6841897
    C       17.6169591   15.1643745   18.7261286
    C       16.9517401   14.3059781   19.6172336
    C       15.9623085   14.8221661   20.4711528
    C       15.6426821   16.1860458   20.4257293
    O       14.6791079   16.6845194   21.2405876
    C       16.3058466   17.0380805   19.5368682
    H       15.8221134   14.5169373   16.0444250
    H       14.0673031   14.5158588   15.8259585
    H       14.8394975   15.8687978   16.6689873
    H       15.2416242   15.1397891   13.7001654
    H       14.1735642   16.4352390   14.2593378
    H       15.1025173   19.1453012   14.8159814
    H       16.7098562   19.3563148   14.0912057
    H       15.9742052   20.6689156   15.0094126
    H       16.6477808   20.9539680   17.0180651
    H       19.1366098   18.6062973   19.1218585
    H       18.9281350   16.9418208   17.3138489
    H       18.3711824   14.7611579   18.0535919
    H       17.2015413   13.2466204   19.6399998
    H       15.4448507   14.1627587   21.1600451
    H       14.3754973   15.9606240   21.8086150
    H       16.0380598   18.0890566   19.5159469
*
