! ri-mp2 cc-pvtz cc-pvtz/c TightSCF NoKeepInts

%scf
  MaxCore 4096
end
*xyz  0  1
    C       14.8598084   15.3178639   15.8966552
    C       15.1535193   15.8421014   14.4707640
    O       16.2305731   16.8057770   14.4352750
    C       17.2347229   16.7611044   15.3561527
    O       18.0639093   15.8675662   15.3390546
    C       17.0874829   17.7233273   16.5009315
    C       16.7265065   19.0079562   16.2294894
    C       16.0805229   19.5639951   14.9750928
    N       17.0005576   20.0160940   17.1587483
    C       17.9060714   19.9069428   18.1783577
    S       18.3128061   21.1976020   19.1289807
    N       18.4731224   18.6717210   18.3531151
    C       18.0290595   17.4363977   17.6788282
    C       17.3245804   16.5229095   18.6749719
    C       17.6687691   15.1602308   18.7340473
    C       17.0128977   14.2935944   19.6241481
    C       15.9990906   14.7925485   20.4595588
    C       15.6463202   16.1475614   20.3970747
    O       14.6594842   16.6292042   21.1940258
    C       16.3005051   17.0078430   19.5095635
    H       15.7048206   14.7424820   16.2967325
    H       13.9883512   14.6522253   15.8813268
    H       14.6384546   16.1431382   16.5850515
    H       15.4251189   14.9852616   13.8399126
    H       14.2477171   16.2927785   14.0452981
    H       15.0923147   19.1158660   14.8146482
    H       16.6964803   19.3537779   14.0913811
    H       15.9414347   20.6512431   15.0156697
    H       16.6163888   20.9376207   17.0236442
    H       19.1300691   18.6104187   19.1205090
    H       18.9422078   16.9502944   17.3055046
    H       18.4418340   14.7699264   18.0755093
    H       17.2885837   13.2410465   19.6602498
    H       15.4886394   14.1266239   21.1474047
    H       14.3664073   15.9031607   21.7648485
    H       16.0078681   18.0517951   19.4754740
*
