! ri-mp2 cc-pvtz cc-pvtz/c TightSCF  NoKeepInts

%scf
  MaxCore 4096
end
*xyz  0  1
    C       15.6496216   14.8229833   13.6505278
    C       14.9072616   15.2255903   14.9366840
    O       15.7959399   16.0432112   15.7194041
    C       15.6588306   17.4053288   15.7186205
    O       14.9367024   17.9802411   14.9213634
    C       16.4393177   18.0540903   16.8340644
    C       16.5598331   19.4103748   16.8137148
    C       15.6688459   20.4220412   16.1212086
    N       17.6028090   20.0318354   17.5061544
    C       18.7237118   19.3928742   17.9588833
    S       20.0008051   20.2159038   18.6124187
    N       18.7413262   18.0304154   17.8166828
    C       17.5869675   17.2047416   17.4136028
    C       17.1078550   16.4133092   18.6254531
    C       17.0959849   15.0066086   18.5900429
    C       16.6529970   14.2666734   19.6993510
    C       16.2168777   14.9387556   20.8539441
    C       16.2250386   16.3398699   20.8922184
    O       15.8013535   16.9914287   22.0044652
    C       16.6666745   17.0734863   19.7867338
    H       15.8889931   15.7105292   13.0510343
    H       15.0278234   14.1567161   13.0403674
    H       16.5846703   14.3007409   13.8877585
    H       13.9666519   15.7428158   14.7021137
    H       14.6609681   14.3176613   15.5020827
    H       14.6105776   20.1635647   16.2544568
    H       15.8703285   20.4412365   15.0424933
    H       15.8016578   21.4403696   16.5049983
    H       17.6173710   21.0360599   17.5858552
    H       19.5709730   17.5809751   18.1823909
    H       17.9668678   16.5258854   16.6372783
    H       17.4261575   14.4851948   17.6954653
    H       16.6472086   13.1787902   19.6616528
    H       15.8732465   14.3718705   21.7128786
    H       15.5662026   16.3208711   22.6630466
    H       16.6685488   18.1569555   19.8385891
*
