! ri-mp2 cc-pvtz cc-pvtz/c TightSCF NoKeepInts

%scf
  MaxCore 4096
end
*xyz  0  1
    C       14.4116214   15.6387488   13.2606245
    C       14.9210532   15.3331042   14.6791694
    O       15.7054533   16.4614591   15.1032107
    C       16.6754718   16.2895698   16.0480570
    O       17.1244073   15.1905386   16.3294543
    C       17.0551689   17.5356119   16.7988964
    C       16.9838120   18.7782138   16.2506438
    C       16.3237497   19.1895027   14.9488122
    N       17.5995221   19.8679798   16.8718960
    C       18.4840584   19.7700502   17.9116193
    S       19.2612692   21.0952296   18.5243390
    N       18.7092133   18.5096560   18.4033015
    C       17.9702375   17.2953131   18.0071438
    C       17.2713712   16.6123227   19.1754608
    C       17.5274466   15.2621057   19.4749065
    C       16.8843066   14.6352264   20.5553824
    C       15.9785877   15.3654230   21.3439737
    C       15.7203331   16.7106849   21.0465908
    O       14.8434882   17.4169388   21.8040359
    C       16.3616913   17.3316494   19.9700251
    H       13.7898113   16.5425317   13.2588058
    H       13.8077605   14.8053091   12.8814301
    H       15.2524610   15.7937650   12.5730660
    H       14.0845971   15.1644196   15.3699884
    H       15.5308265   14.4199208   14.6388005
    H       15.2429937   19.0038670   14.9866231
    H       16.7360134   18.6211357   14.1056473
    H       16.4626275   20.2524970   14.7170587
    H       17.4611085   20.7970355   16.5078857
    H       19.3487411   18.4671910   19.1867314
    H       18.7991862   16.6752324   17.6358923
    H       18.2164305   14.6928843   18.8553353
    H       17.0852568   13.5878873   20.7733185
    H       15.4786394   14.8847522   22.1781816
    H       14.5262757   16.8277359   22.5047120
    H       16.1520081   18.3745071   19.7569799
*
