! ri-mp2 cc-pvtz cc-pvtz/c TightSCF NoKeepInts

%scf
  MaxCore 4096
end
*xyz  0  1
    C       15.2390510   14.4860177   14.2118426
    C       14.7652481   15.9546900   14.1719354
    O       15.6404242   16.9289245   14.8017083
    C       16.6934334   16.6861024   15.6467579
    O       17.3729588   15.6741718   15.6126599
    C       16.8669209   17.7184970   16.7312055
    C       16.6588360   19.0352312   16.4415604
    C       15.9048466   19.6537115   15.2790066
    N       17.2199532   20.0226483   17.2577827
    C       18.2547372   19.8182305   18.1277375
    S       18.9933603   21.0684085   18.9194883
    N       18.6581214   18.5195199   18.2884939
    C       17.9329021   17.3416429   17.7746059
    C       17.2804453   16.5953985   18.9333095
    C       17.4281000   15.1999561   19.0337581
    C       16.8261659   14.4892780   20.0856108
    C       16.0646878   15.1792320   21.0441565
    C       15.9065675   16.5681819   20.9425486
    O       15.1637895   17.2352222   21.8615920
    C       16.5067536   17.2730079   19.8942560
    H       16.2065570   14.3704488   13.7070451
    H       14.5162249   13.8407331   13.6984456
    H       15.3313060   14.1261770   15.2443951
    H       14.6087169   16.2481010   13.1259306
    H       13.7864568   16.0034077   14.6663733
    H       14.8579014   19.3260296   15.2761221
    H       16.3568048   19.3644005   14.3218794
    H       15.8985791   20.7500720   15.3107684
    H       16.9534058   20.9855721   17.1294932
    H       19.4141808   18.3879950   18.9481269
    H       18.6969698   16.7061234   17.3041968
    H       18.0051470   14.6634299   18.2836919
    H       16.9478036   13.4095566   20.1515238
    H       15.5967056   14.6344836   21.8573147
    H       14.8644840   16.5882254   22.5176592
    H       16.3684538   18.3471715   19.8350175
*
