! ri-mp2 cc-pvtz cc-pvtz/c TightSCF NoKeepInts

%scf
  MaxCore 4096
end
*xyz  0  1
    C       14.7969173   15.0964950   13.8609501
    C       15.7401538   14.7556363   15.0342354
    O       16.4325980   15.8742739   15.6509698
    C       16.1647608   17.2169156   15.5228767
    O       15.5559915   17.7022249   14.5864520
    C       16.6676969   17.9878730   16.7196245
    C       16.6483786   19.3485324   16.6532495
    C       15.7913931   20.2361517   15.7727151
    N       17.4801603   20.1033386   17.4851826
    C       18.5616567   19.6082331   18.1592555
    S       19.6074252   20.5884912   18.9845299
    N       18.7468119   18.2528302   18.0907721
    C       17.7764373   17.2915584   17.5336964
    C       17.1754004   16.4901785   18.6831179
    C       17.3557124   15.0957709   18.7422062
    C       16.8029436   14.3469050   19.7948203
    C       16.0628609   14.9975133   20.7968213
    C       15.8803451   16.3861456   20.7408990
    O       15.1643718   17.0166062   21.7057857
    C       16.4318667   17.1286495   19.6922043
    H       13.9650065   15.7309499   14.1915810
    H       14.3672362   14.1789091   13.4416365
    H       15.3384346   15.6100793   13.0564753
    H       15.1442323   14.2539090   15.8077149
    H       16.4874118   14.0301968   14.6879906
    H       14.7598321   19.8637436   15.7322071
    H       16.1772763   20.2502389   14.7453288
    H       15.7451355   21.2724065   16.1275302
    H       17.3754817   21.1048927   17.5151285
    H       19.5397795   17.9106761   18.6181108
    H       18.3582671   16.6359225   16.8708583
    H       17.9235584   14.5903915   17.9656196
    H       16.9483596   13.2687333   19.8319429
    H       15.6338569   14.4237554   21.6116945
    H       14.8962838   16.3480031   22.3536935
    H       16.2829655   18.2028692   19.6701231
*
