! ri-mp2 cc-pvtz cc-pvtz/c TightSCF NoKeepInts

%scf
  MaxCore 4096
end
*xyz  0  1
    C       15.4330626   14.1328081   14.3817746
    C       14.9166841   15.3205714   15.2106790
    O       16.0466762   16.1596556   15.5040649
    C       15.8888997   17.5169542   15.5081851
    O       15.1637666   18.0783209   14.7050226
    C       16.5766253   18.1632407   16.6836388
    C       16.6725370   19.5214144   16.6920229
    C       15.8219793   20.5269188   15.9422539
    N       17.6483742   20.1496607   17.4709420
    C       18.7426190   19.5228542   17.9998658
    S       19.9490674   20.3571719   18.7638751
    N       18.7970342   18.1633806   17.8388385
    C       17.6935785   17.3246290   17.3335881
    C       17.1360187   16.4986589   18.4874300
    C       17.1458493   15.0931383   18.4179929
    C       16.6265341   14.3211001   19.4707820
    C       16.0916208   14.9596717   20.6026311
    C       16.0781483   16.3594590   20.6746141
    O       15.5589058   16.9786358   21.7645692
    C       16.5952800   17.1250729   19.6249517
    H       14.6099059   13.4537113   14.1284856
    H       16.1863951   13.5666171   14.9432191
    H       15.8876783   14.4842746   13.4469440
    H       14.1586584   15.8554732   14.6221448
    H       14.4508651   14.9718582   16.1416978
    H       14.7584313   20.2654899   16.0129832
    H       16.0876579   20.5413298   14.8774172
    H       15.9289317   21.5479163   16.3270336
    H       17.6381746   21.1525722   17.5666033
    H       19.6051609   17.7226674   18.2593469
    H       18.1435210   16.6676449   16.5759005
    H       17.5532344   14.5977349   17.5404667
    H       16.6394738   13.2344000   19.4076949
    H       15.6894389   14.3680059   21.4184108
    H       15.2882968   16.2899925   22.3900999
    H       16.5779151   18.2069947   19.7018296
*
