! ri-mp2 cc-pvtz cc-pvtz/c TightSCF NoKeepInts

%scf
  MaxCore 4096
end
*xyz  0  1
    C       14.6001422   15.9040621   16.5729995
    C       15.3402904   15.5425299   15.2716227
    O       16.7784137   15.5672518   15.4065949
    C       17.4774972   16.7377903   15.3098339
    O       18.2639246   16.9275522   14.4007823
    C       17.1761061   17.7701825   16.3425305
    C       16.9417241   19.0365489   15.9285812
    C       16.5580224   19.4469625   14.5231898
    N       17.0626761   20.1193779   16.8007943
    C       17.6636670   20.0453723   18.0294704
    S       17.8918303   21.3834462   18.9740366
    N       18.0924213   18.8022830   18.4268046
    C       17.8060807   17.5358890   17.7220335
    C       17.1561970   16.4700867   18.5924086
    C       17.5992298   15.1362048   18.5282867
    C       17.0152387   14.1497535   19.3405112
    C       15.9831228   14.5007606   20.2275349
    C       15.5427364   15.8296166   20.2970833
    O       14.5432237   16.1702774   21.1486333
    C       16.1248122   16.8097182   19.4866236
    H       14.9179365   15.2466844   17.3900636
    H       13.5207312   15.7628529   16.4402720
    H       14.7575805   16.9469209   16.8666192
    H       15.0419894   14.5252237   14.9865465
    H       15.0251454   16.2127586   14.4607712
    H       17.4539270   19.5276332   13.8930090
    H       16.0372506   20.4116161   14.4959674
    H       15.8972931   18.7053530   14.0587136
    H       16.7973576   21.0432815   16.4984875
    H       18.5282586   18.7762486   19.3403260
    H       18.8375830   17.2252227   17.4995225
    H       18.3939921   14.8612768   17.8388589
    H       17.3625514   13.1196297   19.2797074
    H       15.5292594   13.7417439   20.8563122
    H       14.3004832   15.3754168   21.6471349
    H       15.7683042   17.8324710   19.5553323
*
