! ri-mp2 cc-pvtz cc-pvtz/c TightSCF  NoKeepInts

%scf
  MaxCore 4096
end
*xyz  0  1
    C       15.6330906   14.1709097   14.3116923
    C       14.8326921   15.3619248   14.8648917
    O       15.7419594   16.1588063   15.6452189
    C       15.6447109   17.5240848   15.6455125
    O       14.9275069   18.1216474   14.8608755
    C       16.4524759   18.1467341   16.7564934
    C       16.6099623   19.4992786   16.7408992
    C       15.7413728   20.5380383   16.0601514
    N       17.6755962   20.0887551   17.4268079
    C       18.7824127   19.4172892   17.8670274
    S       20.0870497   20.2020684   18.5131549
    N       18.7614447   18.0554990   17.7189427
    C       17.5814919   17.2636288   17.3221768
    C       17.0908526   16.4787964   18.5337499
    C       17.0304442   15.0736660   18.4868850
    C       16.5756278   14.3396393   19.5952953
    C       16.1765714   15.0161658   20.7606438
    C       16.2329367   16.4158206   20.8103316
    O       15.8448003   17.0717449   21.9329390
    C       16.6861179   17.1435662   19.7056306
    H       14.9884518   13.5240254   13.7042140
    H       16.0491241   13.5704870   15.1301060
    H       16.4600115   14.5204902   13.6809501
    H       14.4244002   15.9269380   14.0158699
    H       13.9968854   15.0167616   15.4872831
    H       14.6775481   20.3092787   16.2031884
    H       15.9327063   20.5550024   14.9795610
    H       15.9068286   21.5509673   16.4455493
    H       17.7182928   21.0918201   17.5108948
    H       19.5814610   17.5818130   18.0756671
    H       17.9359459   16.5784463   16.5393844
    H       17.3313191   14.5492265   17.5838181
    H       16.5318532   13.2529910   19.5485233
    H       15.8238977   14.4539058   21.6189463
    H       15.5940627   16.4038960   22.5885077
    H       16.7250947   18.2258868   19.7662165
*
