! ri-mp2 cc-pvtz cc-pvtz/c TightSCF NoKeepInts

%scf
  MaxCore 4096
end
*xyz  0  1
    C       14.2554039   15.7255736   15.4595136
    C       15.3926809   15.5974290   14.4289430
    O       16.2083053   16.7772282   14.5147566
    C       17.2444198   16.7605820   15.3990238
    O       18.0970573   15.8891347   15.3655381
    C       17.0872584   17.7046982   16.5572341
    C       16.6734543   18.9777507   16.3051838
    C       15.9787564   19.5211096   15.0711725
    N       16.9334857   19.9886408   17.2354846
    C       17.8703929   19.9071707   18.2287795
    S       18.2558982   21.2060998   19.1770274
    N       18.4873849   18.6928973   18.3784307
    C       18.0688375   17.4457116   17.7094789
    C       17.4255463   16.5046153   18.7215714
    C       17.8169705   15.1540749   18.7633288
    C       17.2229502   14.2637004   19.6733237
    C       16.2235324   14.7261435   20.5462710
    C       15.8230514   16.0685254   20.5009524
    O       14.8503292   16.5148435   21.3350210
    C       16.4158712   16.9525043   19.5937848
    H       14.6554228   15.7515583   16.4814160
    H       13.5730389   14.8701248   15.3846108
    H       13.6763899   16.6415063   15.2889081
    H       15.9799646   14.6851263   14.6043875
    H       14.9555822   15.5325430   13.4241946
    H       15.0051107   19.0365902   14.9277580
    H       16.5818607   19.3430302   14.1717903
    H       15.7985859   20.6016296   15.1262379
    H       16.5109087   20.8956487   17.1181454
    H       19.1666504   18.6511008   19.1274692
    H       18.9891201   16.9950241   17.3102803
    H       18.5796893   14.7919427   18.0772828
    H       17.5351738   13.2210555   19.6960460
    H       15.7609248   14.0418352   21.2497183
    H       14.5995581   15.7767179   21.9104127
    H       16.0874323   17.9861331   19.5745226
*
