! ri-mp2 cc-pvtz cc-pvtz/c TightSCF  NoKeepInts

%scf
  MaxCore 4096
end
*xyz  0  1
    C       13.8389931   16.0961533   14.7990411
    C       15.2701764   15.5843570   15.0338142
    O       16.1850052   16.6154587   14.6292601
    C       17.2941820   16.7693243   15.4027186
    O       18.2709124   16.0554805   15.2604955
    C       17.0940215   17.6695480   16.5846776
    C       16.6000075   18.9143725   16.3425193
    C       15.8909098   19.4167172   15.0993454
    N       16.8052317   19.9367017   17.2736073
    C       17.7617158   19.9123249   18.2514414
    S       18.0756818   21.2289713   19.2014692
    N       18.4618385   18.7413161   18.3821984
    C       18.1152265   17.4719336   17.7133956
    C       17.5615359   16.4787980   18.7280499
    C       18.0375150   15.1550422   18.7360912
    C       17.5267227   14.2158124   19.6474913
    C       16.5260547   14.6017021   20.5555471
    C       16.0415894   15.9168613   20.5440001
    O       15.0675413   16.2889366   21.4121513
    C       16.5512916   16.8495327   19.6350069
    H       13.6192187   16.9509936   15.4496045
    H       13.1099686   15.3066079   15.0188720
    H       13.7042138   16.4055470   13.7549523
    H       15.3929490   15.3413588   16.0990553
    H       15.4541313   14.6727828   14.4498162
    H       14.9160463   18.9308494   14.9800100
    H       16.4826279   19.2101117   14.1983156
    H       15.7155558   20.4993018   15.1212387
    H       16.3236563   20.8151882   17.1659260
    H       19.1580274   18.7423397   19.1168214
    H       19.0549319   17.0874603   17.2906473
    H       18.8030865   14.8521800   18.0247811
    H       17.9048617   13.1948645   19.6454368
    H       16.1280460   13.8795270   21.2607658
    H       14.8845885   15.5306413   21.9870091
    H       16.1589375   17.8609017   19.6424264
*
