! ri-mp2 cc-pvtz cc-pvtz/c TightSCF NoKeepInts

%scf
  MaxCore 4096
end
*xyz  0  1
    C       14.5997012   15.0673445   15.6308598
    C       15.0706907   15.8060004   14.3561434
    O       15.9811567   16.8840469   14.6641996
    C       16.9710927   16.7288195   15.5907622
    O       17.6208292   15.7000380   15.6772636
    C       17.1011889   17.8594182   16.5695641
    C       16.8477384   19.1525351   16.2383240
    C       16.2031054   19.6779867   14.9709574
    N       17.2325989   20.1934808   17.0871709
    C       18.0553388   20.0451435   18.1712773
    S       18.5536588   21.3397785   19.0718949
    N       18.4619114   18.7666947   18.4589244
    C       17.9723912   17.5451030   17.7908684
    C       17.3242012   16.5520963   18.7465279
    C       17.7740520   15.2210867   18.8111420
    C       17.1686214   14.3037179   19.6861894
    C       16.1044921   14.7213173   20.5038425
    C       15.6524661   16.0465723   20.4393134
    O       14.6211482   16.4508181   21.2230110
    C       16.2567315   16.9571415   19.5666399
    H       15.4074624   14.4770719   16.0813260
    H       13.7852353   14.3747455   15.3868766
    H       14.2275464   15.7775234   16.3799351
    H       15.5696730   15.0844662   13.6954551
    H       14.2022494   16.2085134   13.8192062
    H       15.1588471   19.3487249   14.9020716
    H       16.7331503   19.3115082   14.0827886
    H       16.2047757   20.7733762   14.9150097
    H       16.9605275   21.1402517   16.8762461
    H       19.0510225   18.6820643   19.2776650
    H       18.9156716   17.1429692   17.3931609
    H       18.5858412   14.8935695   18.1657347
    H       17.5214081   13.2746001   19.7229246
    H       15.6330036   14.0156586   21.1796411
    H       14.3632603   15.6967781   21.7741592
    H       15.8942110   17.9790387   19.5309234
*
