! ri-mp2 cc-pvtz cc-pvtz/c TightSCF NoKeepInts

%scf
  MaxCore 4096
end
*xyz  0  1
    C       14.5135936   16.0976284   15.9952390
    C       15.2765873   15.7028577   14.7125625
    O       16.3886858   16.5767685   14.4147140
    C       17.4118589   16.7327222   15.3068878
    O       18.4090183   16.0371325   15.2358341
    C       17.1282068   17.6371021   16.4696942
    C       16.6859499   18.8901210   16.1756012
    C       16.1062027   19.3948244   14.8673814
    N       16.8323629   19.9172773   17.1122604
    C       17.7023502   19.8831166   18.1674328
    S       17.9630175   21.2026299   19.1294951
    N       18.3639616   18.6993857   18.3663205
    C       18.0464201   17.4301868   17.6826661
    C       17.3881075   16.4601183   18.6561742
    C       17.8129162   15.1196737   18.6941723
    C       17.2022430   14.1991418   19.5620837
    C       16.1522392   14.6208132   20.3953981
    C       15.7189693   15.9530368   20.3534379
    O       14.6965917   16.3595249   21.1473132
    C       16.3284602   16.8672526   19.4883065
    H       15.1086163   15.8913284   16.8929126
    H       13.5915973   15.5091848   16.0774133
    H       14.2327283   17.1567968   15.9868721
    H       15.6390928   14.6707067   14.8124917
    H       14.5788512   15.7248130   13.8654578
    H       15.1516463   18.9060675   14.6410383
    H       16.7913556   19.1952593   14.0333438
    H       15.9239381   20.4764548   14.8757393
    H       16.3823489   20.8050887   16.9557617
    H       18.9973510   18.6938413   19.1556942
    H       19.0099013   17.0217607   17.3444635
    H       18.6160360   14.7891594   18.0387173
    H       17.5412594   13.1647635   19.5834701
    H       15.6765985   13.9129123   21.0661604
    H       14.4454143   15.6086914   21.7060171
    H       15.9725221   17.8918571   19.4694715
*
