! ri-mp2 cc-pvtz cc-pvtz/c TightSCF  NoKeepInts

%scf
  MaxCore 4096
end
*xyz  0  1
    C       14.6699533   14.3212382   15.6408853
    C       15.1964891   15.7478744   15.8644018
    O       16.4021209   15.8818137   15.0889248
    C       17.1855265   17.0039530   15.1277614
    O       17.9537198   17.2706921   14.2221026
    C       17.0601272   17.8420409   16.3590577
    C       16.9534616   19.1695083   16.1026476
    C       16.3831547   19.7956247   14.8471933
    N       17.3990606   20.1107613   17.0322888
    C       18.2748180   19.8280670   18.0445229
    S       18.9136713   21.0101331   19.0085295
    N       18.6157864   18.5082956   18.1981446
    C       17.9561382   17.3753255   17.5181421
    C       17.1765716   16.5696651   18.5480010
    C       17.4387590   15.1971751   18.7140959
    C       16.7062987   14.4374416   19.6414991
    C       15.7036095   15.0546551   20.4087547
    C       15.4399771   16.4214959   20.2459491
    O       14.4672092   17.0184799   20.9790235
    C       16.1683856   17.1749103   19.3200428
    H       15.4052342   13.5815395   15.9815969
    H       14.4692805   14.1448877   14.5766234
    H       13.7390640   14.1619189   16.1984741
    H       14.4480992   16.4803154   15.5342077
    H       15.3749270   15.8898414   16.9335194
    H       17.1704752   19.9167489   14.0908850
    H       15.9422362   20.7813454   15.0380249
    H       15.5994791   19.1670921   14.4067600
    H       17.2024976   21.0888430   16.8898143
    H       19.2621263   18.3270220   18.9557408
    H       18.7687930   16.7647741   17.0970198
    H       18.2092499   14.7150826   18.1172558
    H       16.9167715   13.3760125   19.7633848
    H       15.1356773   14.4713828   21.1264060
    H       14.1287482   16.3620349   21.6067333
    H       15.9495029   18.2320079   19.2095855
*
