! ri-mp2 cc-pvtz cc-pvtz/c TightSCF NoKeepInts

%scf
  MaxCore 4096
end
*xyz  0  1
    C       15.2174674   14.0608432   15.3283505
    C       15.1356143   15.5472176   15.7121324
    O       16.3156169   16.1888607   15.2039963
    C       16.2996613   17.5502169   15.1676971
    O       15.8660513   18.1356116   14.1926030
    C       16.7477059   18.1746783   16.4637515
    C       16.7946673   19.5340022   16.5177159
    C       16.0159180   20.5306882   15.6833748
    N       17.6183818   20.1698684   17.4501356
    C       18.6491211   19.5632248   18.1129998
    S       19.7028958   20.4118642   19.0640121
    N       18.7810978   18.2132767   17.9186349
    C       17.7899414   17.3521987   17.2466142
    C       17.1310517   16.4787294   18.3068875
    C       17.3789713   15.0937108   18.3326023
    C       16.7651569   14.2755233   19.2956881
    C       15.8996074   14.8474758   20.2436592
    C       15.6556145   16.2275730   20.2251502
    O       14.8193735   16.7825983   21.1378654
    C       16.2653441   17.0389308   19.2632667
    H       14.3249724   13.5246726   15.6729273
    H       16.0978179   13.5918275   15.7845890
    H       15.2885625   13.9468104   14.2392696
    H       14.2399268   15.9859068   15.2508510
    H       15.0560226   15.6607065   16.8005697
    H       14.9884310   20.1834586   15.5163543
    H       16.4835606   20.6581024   14.6983713
    H       15.9493480   21.5185522   16.1542368
    H       17.5592709   21.1689903   17.5668447
    H       19.5421742   17.7889468   18.4334125
    H       18.3595209   16.7338611   16.5377170
    H       18.0451567   14.6487460   17.5977630
    H       16.9623068   13.2047423   19.3069163
    H       15.4243286   14.2198092   20.9905341
    H       14.5477521   16.0820521   21.7500451
    H       16.0685889   18.1057222   19.2704606
*
