! ri-mp2 cc-pvtz cc-pvtz/c TightSCF NoKeepInts

%scf
  MaxCore 4096
end
*xyz  0  1
    C       15.1901567   15.0641009   13.3900487
    C       14.5826693   15.6391063   14.6831881
    O       15.4091581   16.7305812   15.1266160
    C       16.4439760   16.4882842   15.9848492
    O       16.8989171   15.3696107   16.1600061
    C       16.8908840   17.6775386   16.7884674
    C       16.8056559   18.9536182   16.3262512
    C       16.0734442   19.4551605   15.0968132
    N       17.4773506   19.9932492   16.9748108
    C       18.4247290   19.8171544   17.9466940
    S       19.2612167   21.0901032   18.5912683
    N       18.6600898   18.5247959   18.3410685
    C       17.8771464   17.3480069   17.9169315
    C       17.2429999   16.5988373   19.0815923
    C       17.4910055   15.2276345   19.2729575
    C       16.9075825   14.5392529   20.3498813
    C       16.0702412   15.2285017   21.2438503
    C       15.8200180   16.5946388   21.0543171
    O       15.0089058   17.2616364   21.9137253
    C       16.4017718   17.2768750   19.9809780
    H       15.2837317   15.8439102   12.6243040
    H       14.5553585   14.2639562   12.9906658
    H       16.1858073   14.6440582   13.5813119
    H       13.5750173   16.0144018   14.4633729
    H       14.4959616   14.8616838   15.4551438
    H       14.9934299   19.2878355   15.1937133
    H       16.4185323   18.9314911   14.1964565
    H       16.2214726   20.5274463   14.9199352
    H       17.3313431   20.9455794   16.6805961
    H       19.3477633   18.4236016   19.0768803
    H       18.6702531   16.7430747   17.4537421
    H       18.1264342   14.6909276   18.5723856
    H       17.1014210   13.4765849   20.4839039
    H       15.6164933   14.7004030   22.0757888
    H       14.7267214   16.6315102   22.5934633
    H       16.1993408   18.3348484   19.8520220
*
