! ri-mp2 cc-pvtz cc-pvtz/c TightSCF NoKeepInts

%scf
  MaxCore 4096
end
*xyz  0  1
    C       14.8325390   14.9905753   15.9221849
    C       16.0270251   14.9247830   14.9485651
    O       17.0118911   15.9023750   15.3299428
    C       16.7123441   17.2251452   15.1698308
    O       16.2252524   17.6395478   14.1322265
    C       16.8858236   18.0071812   16.4457512
    C       16.7505695   19.3602288   16.3811507
    C       16.0120665   20.1801627   15.3425932
    N       17.3232786   20.1684908   17.3669801
    C       18.2908104   19.7579094   18.2418037
    S       19.0532964   20.8098993   19.2652487
    N       18.6176409   18.4279782   18.2010419
    C       17.8742160   17.3946564   17.4561499
    C       17.1470494   16.5084729   18.4601706
    C       17.5289798   15.1635516   18.6203470
    C       16.8601844   14.3347105   19.5368251
    C       15.8009291   14.8550675   20.2998608
    C       15.4197395   16.1949801   20.1448064
    O       14.3963760   16.6996198   20.8788908
    C       16.0873275   17.0174766   19.2321774
    H       15.1621550   14.8367544   16.9567426
    H       14.1008100   14.2104664   15.6800957
    H       14.3231517   15.9602953   15.8600564
    H       16.4737128   13.9233732   14.9947639
    H       15.6877660   15.0984402   13.9180035
    H       15.0446884   19.7216960   15.1009244
    H       16.5909020   20.2374648   14.4117721
    H       15.8089618   21.2052966   15.6739208
    H       17.1201919   21.1552367   17.3810203
    H       19.3208538   18.1483094   18.8728459
    H       18.6316450   16.8134084   16.9113421
    H       18.3435622   14.7576197   18.0262538
    H       17.1625938   13.2953637   19.6530692
    H       15.2811748   14.2189558   21.0088018
    H       14.0963220   16.0013182   21.4799414
    H       15.7811694   18.0531890   19.1318984
*
