! ri-mp2 cc-pvtz cc-pvtz/c TightSCF NoKeepInts

%scf
  MaxCore 4096
end
*xyz  0  1
    C       15.3328227   14.1248176   15.8953708
    C       15.6994631   15.1249703   14.7859315
    O       16.6887739   16.0205600   15.3217998
    C       16.4903326   17.3660924   15.1967597
    O       15.9883919   17.8427330   14.1930954
    C       16.8149019   18.1092528   16.4667506
    C       16.8144968   19.4700026   16.4203670
    C       16.1078045   20.3748477   15.4312334
    N       17.5193400   20.2032573   17.3788712
    C       18.4863140   19.6858066   18.1955626
    S       19.4071617   20.6421842   19.1819771
    N       18.6736976   18.3304235   18.1266476
    C       17.7895564   17.3871344   17.4169478
    C       17.0327597   16.5677972   18.4555992
    C       17.3073106   15.1962604   18.6084259
    C       16.6131477   14.4293347   19.5592590
    C       15.6378873   15.0396579   20.3662473
    C       15.3652991   16.4068132   20.2202519
    O       14.4246156   16.9989190   20.9984009
    C       16.0574391   17.1672308   19.2726693
    H       16.2154747   13.5551644   16.2106795
    H       14.5754682   13.4159198   15.5395848
    H       14.9278903   14.6489716   16.7705483
    H       16.1019157   14.5976947   13.9113047
    H       14.7931645   15.6648543   14.4777708
    H       15.0858665   20.0219716   15.2426647
    H       16.6360366   20.3838936   14.4691492
    H       16.0312220   21.4112613   15.7804216
    H       17.4183014   21.2051455   17.4118619
    H       19.3799171   17.9724181   18.7567842
    H       18.4537160   16.7387638   16.8280818
    H       18.0575220   14.7215317   17.9815794
    H       16.8314802   13.3684339   19.6683454
    H       15.0992053   14.4518749   21.1022122
    H       14.0914561   16.3287986   21.6138644
    H       15.8368473   18.2252067   19.1809791
*
