! ri-mp2 cc-pvtz cc-pvtz/c TightSCF  NoKeepInts

%scf
  MaxCore 4096
end
*xyz  0  1
    C       14.3087711   16.3461024   15.9788763
    C       15.4755615   15.3875902   15.6539206
    O       16.4439211   15.9986917   14.7716961
    C       17.3512571   16.9639667   15.1292028
    O       18.3176298   17.2186926   14.4350672
    C       17.0680530   17.7039141   16.3880882
    C       16.7199300   18.9959166   16.1730212
    C       16.1130474   19.5544524   14.9030024
    N       16.9601839   19.9669239   17.1470211
    C       17.8429592   19.8094904   18.1807379
    S       18.2203107   21.0493235   19.2080977
    N       18.4220610   18.5713712   18.2990381
    C       18.0127795   17.3681210   17.5474740
    C       17.3594258   16.3724524   18.4953907
    C       17.8959187   15.0799745   18.6413260
    C       17.2820400   14.1440569   19.4906126
    C       16.1216950   14.5027467   20.1978367
    C       15.5856429   15.7898398   20.0554367
    O       14.4610085   16.1369959   20.7297981
    C       16.1986983   16.7192467   19.2097341
    H       14.5817611   17.1027827   16.7211334
    H       13.4678189   15.7786711   16.3960999
    H       13.9546298   16.8495555   15.0709511
    H       15.9511155   15.0333798   16.5769201
    H       15.0609587   14.5082193   15.1441265
    H       15.4166417   18.8416746   14.4448526
    H       16.9001319   19.7658758   14.1665629
    H       15.5586975   20.4838442   15.0802224
    H       16.5888142   20.8966620   17.0323645
    H       19.0706170   18.4814391   19.0707700
    H       18.9353744   16.9414402   17.1260280
    H       18.7905664   14.7977590   18.0914892
    H       17.7054360   13.1466046   19.5988218
    H       15.6439529   13.7825264   20.8542177
    H       14.2292307   15.3980051   21.3126541
    H       15.7703589   17.7116911   19.1154074
*
