! ri-mp2 cc-pvtz cc-pvtz/c TightSCF NoKeepInts

%scf
  MaxCore 4096
end
*xyz  0  1
    C       14.7942365   14.7617466   14.9748136
    C       15.1829317   15.8757336   13.9754084
    O       15.8929579   16.9604988   14.6142244
    C       16.8800675   16.7499822   15.5355233
    O       17.5963089   15.7624481   15.4998809
    C       16.9373253   17.7518665   16.6586728
    C       16.6560040   19.0620102   16.4059182
    C       15.9052729   19.6718863   15.2371609
    N       17.1184166   20.0512692   17.2796877
    C       18.1238468   19.8777422   18.1901883
    S       18.7461165   21.1401053   19.0588081
    N       18.6001303   18.6007757   18.3259665
    C       17.9760022   17.4006273   17.7363622
    C       17.3182204   16.5705147   18.8334432
    C       17.5408205   15.1823186   18.8839248
    C       16.9337940   14.3945164   19.8761924
    C       16.0916203   14.9990887   20.8248107
    C       15.8588992   16.3802358   20.7724093
    O       15.0381612   16.9646640   21.6813031
    C       16.4642165   17.1619237   19.7832318
    H       15.6644357   14.1714082   15.2862172
    H       14.0812490   14.0703447   14.5098012
    H       14.3205220   15.1860246   15.8689023
    H       15.8133018   15.4388615   13.1894445
    H       14.2782455   16.2722727   13.4970411
    H       14.8929097   19.2552266   15.1653333
    H       16.4251529   19.4719852   14.2917400
    H       15.7991405   20.7603204   15.3209457
    H       16.7981367   21.0002734   17.1720230
    H       19.3319447   18.4915114   19.0163341
    H       18.7984253   16.8318118   17.2789034
    H       18.1805287   14.7113642   18.1406779
    H       17.1139830   13.3213329   19.9037727
    H       15.6194463   14.3945748   21.5920251
    H       14.7475655   16.2745161   22.2960213
    H       16.2666636   18.2282175   19.7608866
*
