! ri-mp2 cc-pvtz cc-pvtz/c TightSCF NoKeepInts

%scf
  MaxCore 4096
end
*xyz  0  1
    C       14.5749075   14.7230549   14.9481325
    C       15.0343752   15.9027891   14.0608869
    O       15.7300851   16.9293564   14.8062522
    C       16.6824925   16.6716928   15.7540094
    O       17.2393490   15.5917352   15.8575152
    C       16.9945587   17.8239439   16.6699255
    C       16.8288018   19.1266084   16.3146634
    C       16.1121778   19.6838031   15.0999681
    N       17.3810940   20.1519282   17.0871230
    C       18.2851977   19.9627874   18.0968357
    S       18.9796386   21.2334539   18.8961115
    N       18.6011657   18.6622949   18.3957430
    C       17.9424865   17.4717991   17.8245873
    C       17.3064465   16.5767760   18.8803703
    C       17.6540066   15.2169695   18.9723418
    C       17.0662243   14.3932764   19.9470215
    C       16.1239426   14.9345776   20.8383413
    C       15.7745469   16.2890397   20.7477356
    O       14.8618090   16.8131790   21.6042215
    C       16.3609703   17.1061766   19.7759873
    H       15.4072072   14.0550198   15.2002008
    H       13.8262623   14.1221076   14.4181543
    H       14.1213070   15.0858485   15.8789280
    H       15.6921252   15.5133544   13.2726091
    H       14.1600200   16.3518358   13.5726438
    H       16.5571667   19.2982660   14.1741815
    H       16.1544138   20.7783819   15.0442308
    H       15.0520885   19.4011840   15.1119297
    H       17.1754169   21.1128956   16.8658501
    H       19.2532642   18.5484379   19.1614422
    H       18.8064595   16.9725761   17.3621598
    H       18.3709416   14.7944872   18.2722370
    H       17.3378339   13.3407804   20.0038616
    H       15.6663549   14.3016460   21.5912600
    H       14.5915635   16.1052139   22.2079339
    H       16.0802987   18.1527228   19.7226046
*
