! ri-mp2 cc-pvtz cc-pvtz/c TightSCF  NoKeepInts

%scf
  MaxCore 4096
end
*xyz  0  1
    C       14.6525309   15.3404127   15.6114493
    C       16.0856308   14.8441143   15.3091429
    O       17.0713698   15.9033703   15.2996307
    C       16.7206577   17.2185144   15.1809200
    O       16.2193402   17.6413031   14.1540449
    C       16.9238107   17.9896068   16.4593122
    C       16.8064816   19.3446890   16.4081321
    C       16.0781675   20.1835850   15.3777157
    N       17.3923887   20.1355259   17.4004015
    C       18.3500006   19.7017035   18.2750928
    S       19.1243882   20.7318974   19.3116268
    N       18.6554473   18.3669787   18.2246983
    C       17.9022588   17.3528556   17.4637022
    C       17.1539536   16.4624945   18.4485706
    C       17.5085785   15.1076519   18.5854427
    C       16.8141145   14.2733530   19.4774422
    C       15.7568588   14.7984701   20.2399451
    C       15.4033302   16.1484637   20.1089397
    O       14.3817617   16.6578680   20.8421267
    C       16.0959602   16.9760430   19.2198937
    H       14.6170377   15.8858742   16.5630980
    H       13.9683328   14.4870078   15.6903694
    H       14.2753621   15.9918057   14.8129353
    H       16.3753483   14.0879822   16.0500178
    H       16.0806907   14.3570699   14.3252197
    H       15.0982843   19.7480677   15.1439765
    H       16.6496671   20.2284506   14.4416584
    H       15.9024524   21.2128622   15.7117800
    H       17.2050304   21.1252577   17.4224694
    H       19.3522517   18.0706903   18.8960691
    H       18.6541124   16.7680167   16.9151175
    H       18.3237040   14.6990120   17.9938188
    H       17.0963565   13.2265861   19.5772339
    H       15.2176946   14.1584382   20.9307155
    H       14.0635928   15.9548083   21.4282110
    H       15.8100518   18.0191696   19.1370795
*
