! ri-mp2 cc-pvtz cc-pvtz/c TightSCF NoKeepInts

%scf
  MaxCore 4096
end
*xyz  0  1
    C       15.5254772   13.9758921   17.3989190
    C       16.3192663   14.1914047   16.1010903
    O       17.4993233   14.9813640   16.3666198
    C       17.4690999   16.3144872   16.0659704
    O       16.9378321   16.7063288   15.0411430
    C       17.7040494   17.1945418   17.2637046
    C       17.3475494   18.5053432   17.2892113
    C       16.5721153   19.2722588   16.2392961
    N       17.7565770   19.3184397   18.3513740
    C       18.7065310   18.9659537   19.2736327
    S       19.3025996   20.0453299   20.3761612
    N       19.1526357   17.6695088   19.2202536
    C       18.5108802   16.6015842   18.4320825
    C       17.6889965   15.7311256   19.3761936
    C       18.1653771   14.4632519   19.7603848
    C       17.4432792   13.6731127   20.6709658
    C       16.2359172   14.1553658   21.2044445
    C       15.7644552   15.4219657   20.8331762
    O       14.6014033   15.8924200   21.3494909
    C       16.4874916   16.2081811   19.9308235
    H       16.1346128   13.4555124   18.1455754
    H       14.6360708   13.3647218   17.2044493
    H       15.1919907   14.9340233   17.8139942
    H       16.6292786   13.2107760   15.7179460
    H       15.6784073   14.6539023   15.3380545
    H       15.6296902   18.7612776   16.0048008
    H       17.1485172   19.3395898   15.3077036
    H       16.3225965   20.2930801   16.5514470
    H       17.4509303   20.2776968   18.3902122
    H       19.8346306   17.4295229   19.9280446
    H       19.3084112   15.9798473   18.0013391
    H       19.1001706   14.0886013   19.3520116
    H       17.8196820   12.6934151   20.9603785
    H       15.6739815   13.5485382   21.9068247
    H       14.2835924   15.2409631   21.9926997
    H       16.1135809   17.1926722   19.6735811
*
