! ri-mp2 cc-pvtz cc-pvtz/c TightSCF NoKeepInts

%scf
  MaxCore 4096
end
*xyz  0  1
    C       15.1171955   15.1154989   17.5115887
    C       15.5067489   15.5114001   16.0761533
    O       16.8830935   15.1645724   15.8042695
    C       18.0081126   15.6067645   16.4612618
    O       19.0000756   14.9015488   16.4802972
    C       17.9030538   16.8015960   17.3589179
    C       17.4347092   18.0040039   16.9426911
    C       16.9994726   18.3954106   15.5453793
    N       17.4766043   19.1045653   17.8017235
    C       18.1235202   19.1291739   19.0086764
    S       18.2094473   20.5054041   19.9210781
    N       18.7058374   17.9557613   19.4168050
    C       18.5643247   16.6527482   18.7369390
    C       17.8450678   15.6358739   19.6230766
    C       18.2243929   14.2808740   19.5860518
    C       17.5711886   13.3286344   20.3856870
    C       16.5288479   13.7323321   21.2363880
    C       16.1493219   15.0800851   21.2823793
    O       15.1379551   15.4725329   22.0969869
    C       16.8015589   16.0264770   20.4854652
    H       15.4012788   15.8985568   18.2202691
    H       15.5965309   14.1736207   17.8089547
    H       14.0312117   14.9838464   17.5893017
    H       14.8757782   14.9427501   15.3806345
    H       15.2908463   16.5688755   15.9092384
    H       17.1484934   17.5901337   14.8161509
    H       17.5891562   19.2480496   15.1843018
    H       15.9433439   18.6903123   15.5222084
    H       17.0808454   19.9836494   17.5074881
    H       19.1696795   17.9990897   20.3155473
    H       19.5812902   16.2686196   18.5671749
    H       19.0268604   13.9608687   18.9246290
    H       17.8734462   12.2836368   20.3408089
    H       16.0203335   12.9994657   21.8540777
    H       14.8462162   14.6934925   22.5941852
    H       16.4811605   17.0617750   20.5372138
*
