! ri-mp2 cc-pvtz cc-pvtz/c TightSCF NoKeepInts

%scf
  MaxCore 4096
end
*xyz  0  1
    C       14.8801495   15.5256109   17.5141597
    C       15.6818317   15.1612276   16.2510380
    O       17.0257591   14.8176017   16.6245592
    C       18.0789517   15.6766617   16.4698570
    O       19.1804377   15.1891283   16.2976574
    C       17.9670693   16.8599732   17.3703747
    C       17.4191830   18.0264529   16.9625139
    C       16.8487042   18.3327898   15.5952905
    N       17.4056071   19.1272187   17.8219824
    C       18.0288157   19.1701556   19.0420690
    S       18.0236598   20.5384626   19.9706177
    N       18.6558550   18.0202950   19.4557383
    C       18.6116303   16.7224241   18.7516361
    C       17.9241014   15.6496694   19.5928567
    C       18.4138228   14.3305801   19.5810274
    C       17.7880772   13.3257896   20.3372918
    C       16.6607717   13.6408294   21.1144052
    C       16.1672134   14.9521435   21.1273942
    O       15.0709124   15.2568163   21.8663907
    C       16.7921833   15.9509276   20.3740543
    H       14.9653742   14.7297281   18.2651425
    H       13.8180291   15.6514333   17.2719959
    H       15.2371450   16.4597677   17.9614101
    H       15.2148192   14.2782941   15.7953431
    H       15.6528984   15.9655633   15.5087459
    H       17.2016550   17.6266168   14.8337992
    H       17.1541109   19.3311812   15.2564007
    H       15.7522844   18.3065790   15.6112756
    H       16.9626116   19.9850341   17.5327459
    H       19.0917615   18.0754804   20.3675347
    H       19.6517206   16.4012080   18.5930140
    H       19.2749234   14.0800093   18.9649470
    H       18.1739342   12.3082256   20.3118190
    H       16.1723306   12.8667273   21.6967510
    H       14.8124143   14.4548353   22.3450205
    H       16.3862512   16.9565584   20.3971408
*
