! ri-mp2 cc-pvtz cc-pvtz/c TightSCF NoKeepInts

%scf
  MaxCore 4096
end
*xyz  0  1
    C       14.9013439   15.6815091   17.2169430
    C       15.7881926   14.8240299   16.2924588
    O       16.8341336   15.5966344   15.6636584
    C       17.9989590   15.8306110   16.3408225
    O       18.7999841   14.9213293   16.4647819
    C       17.9224127   16.9284810   17.3567965
    C       17.3125585   18.1133406   17.1089481
    C       16.6527646   18.5499884   15.8171824
    N       17.3541996   19.1297699   18.0672039
    C       18.1315677   19.1038573   19.1956571
    S       18.2294604   20.4020539   20.2152313
    N       18.8260023   17.9440217   19.4362525
    C       18.6604787   16.6869437   18.6796390
    C       17.9634031   15.6238194   19.5290759
    C       18.4209393   14.2929254   19.5128066
    C       17.7827920   13.3031931   20.2785927
    C       16.6759401   13.6448930   21.0732825
    C       16.2176147   14.9685741   21.0972615
    O       15.1440033   15.3012389   21.8570517
    C       16.8555848   15.9516358   20.3342939
    H       15.4704367   16.1304871   18.0341395
    H       14.1205393   15.0571972   17.6682578
    H       14.4033397   16.4772789   16.6523292
    H       16.2264590   13.9925340   16.8623189
    H       15.1531999   14.3879966   15.5105563
    H       15.6003164   18.2487253   15.7876594
    H       17.1513275   18.1092613   14.9449113
    H       16.6930456   19.6381033   15.6834427
    H       16.8582374   19.9916299   17.9035610
    H       19.3758436   17.9449345   20.2860007
    H       19.6666419   16.3152052   18.4362621
    H       19.2708792   14.0209949   18.8907176
    H       18.1460386   12.2772841   20.2504202
    H       16.1787710   12.8831963   21.6647521
    H       14.8805491   14.5099239   22.3505489
    H       16.4790399   16.9683974   20.3701823
*
