! ri-mp2 cc-pvtz cc-pvtz/c TightSCF NoKeepInts

%scf
  MaxCore 4096
end
*xyz  0  1
    C       14.8473036   14.1662378   16.1739647
    C       15.7000417   14.9365216   15.1444888
    O       16.3601047   16.0370974   15.7988698
    C       17.3814219   15.8038973   16.6755427
    O       17.9222092   14.7139229   16.7727760
    C       17.7491686   16.9682101   17.5525228
    C       17.3181344   18.2474973   17.3888848
    C       16.3984038   18.7990351   16.3184800
    N       17.7839832   19.2512031   18.2452471
    C       18.7745743   19.0910533   19.1775623
    S       19.3566663   20.3637728   20.0590626
    N       19.2577500   17.8182278   19.3417528
    C       18.6850838   16.6130022   18.7140052
    C       17.9656574   15.7585347   19.7547608
    C       18.3035780   14.4025750   19.9201150
    C       17.6410152   13.6096424   20.8720283
    C       16.6305318   14.1764779   21.6671162
    C       16.2881512   15.5255491   21.5033345
    O       15.3083634   16.0742569   22.2651240
    C       16.9490879   16.3121084   20.5546767
    H       15.4770645   13.6875369   16.9345247
    H       14.2665814   13.3801269   15.6765714
    H       14.1463993   14.8413777   16.6801862
    H       16.4339196   14.2646700   14.6784386
    H       15.0445085   15.3252062   14.3547731
    H       16.7754238   18.5540074   15.3177390
    H       16.2971211   19.8900011   16.3661691
    H       15.3920752   18.3728138   16.4158251
    H       17.4417291   20.1928928   18.1407184
    H       19.9650768   17.7197650   20.0586052
    H       19.5195352   16.0256481   18.3041657
    H       19.0723775   13.9570851   19.2933967
    H       17.9078298   12.5604495   20.9850980
    H       16.1149035   13.5672293   22.4018420
    H       15.0010675   15.3898080   22.8781750
    H       16.6701568   17.3545589   20.4474566
*
