! ri-mp2 cc-pvtz cc-pvtz/c TightSCF NoKeepInts

%scf
  MaxCore 4096
end
*xyz  0  1
    C       15.1064550   14.4686595   16.9653154
    C       16.4771253   13.9520107   16.4698727
    O       17.5032817   14.9727179   16.4505129
    C       17.2195987   16.2933879   16.2423149
    O       16.4905037   16.6538407   15.3346011
    C       17.7331015   17.1884599   17.3374561
    C       17.5119776   18.5278946   17.3442790
    C       16.7238188   19.3332980   16.3335666
    N       18.0775200   19.3262206   18.3433551
    C       18.9863273   18.8905927   19.2706354
    S       19.7120057   19.9242518   20.3386201
    N       19.2698164   17.5485937   19.2642751
    C       18.5556307   16.5379962   18.4626848
    C       17.6968972   15.6739468   19.3812629
    C       18.0006581   14.3123167   19.5684319
    C       17.2103852   13.5124902   20.4109277
    C       16.1110134   14.0799188   21.0774158
    C       15.8120213   15.4379736   20.9021443
    O       14.7515540   15.9889375   21.5442474
    C       16.5992783   16.2309836   20.0616664
    H       15.2029632   14.9908029   17.9238159
    H       14.4187228   13.6271709   17.1110073
    H       14.6431247   15.1474160   16.2389767
    H       16.8086031   13.1225838   17.1074956
    H       16.3480122   13.5570780   15.4536304
    H       17.1550718   19.2217986   15.3305091
    H       16.6969528   20.4045359   16.5648255
    H       15.6861141   18.9793086   16.2840824
    H       17.8853025   20.3151453   18.3577007
    H       19.9197734   17.2517388   19.9807105
    H       19.3148863   15.8970898   17.9927193
    H       18.8489656   13.8707272   19.0521118
    H       17.4519906   12.4597458   20.5473558
    H       15.4981478   13.4666763   21.7299475
    H       14.3649077   15.3045249   22.1108982
    H       16.3544918   17.2811658   19.9446277
*
