! ri-mp2 cc-pvtz cc-pvtz/c TightSCF NoKeepInts

%scf
  MaxCore 4096
end
*xyz  0  1
    C       14.7923100   14.8591705   16.1561432
    C       15.9644429   14.7002244   17.1413250
    O       17.1890983   14.9165717   16.4114496
    C       17.6284868   16.1846395   16.1564517
    O       17.6080810   16.6077249   15.0154596
    C       17.7686890   17.0773248   17.3567218
    C       17.3611891   18.3695654   17.3303107
    C       16.5672562   19.0477681   16.2354812
    N       17.7056624   19.2328165   18.3738009
    C       18.6337221   18.9448928   19.3398559
    S       19.1255603   20.0721284   20.4451409
    N       19.1400592   17.6686159   19.3406622
    C       18.6116990   16.5513979   18.5337570
    C       17.8910886   15.5663592   19.4482735
    C       18.2588093   14.2074451   19.4569033
    C       17.5970089   13.2926260   20.2928922
    C       16.5628760   13.7398701   21.1325661
    C       16.2002105   15.0934426   21.1349211
    O       15.1997533   15.5280195   21.9411230
    C       16.8588787   16.0017364   20.3002960
    H       14.7519780   15.8792620   15.7545083
    H       13.8386179   14.6496422   16.6554896
    H       14.8995656   14.1630620   15.3146339
    H       15.8333416   15.4095486   17.9640047
    H       15.9560573   13.6829547   17.5538082
    H       15.7681786   18.3926611   15.8670365
    H       17.2165071   19.2797656   15.3810547
    H       16.0984401   19.9811950   16.5684330
    H       17.3623679   20.1803214   18.3707917
    H       19.8082870   17.4815129   20.0776496
    H       19.4763260   16.0293704   18.0996061
    H       19.0542035   13.8554738   18.8045033
    H       17.8868481   12.2429135   20.2887972
    H       16.0493519   13.0364393   21.7801574
    H       14.9180532   14.7797004   22.4890589
    H       16.5639946   17.0458378   20.3209321
*
