! ri-mp2 cc-pvtz cc-pvtz/c TightSCF NoKeepInts

%scf
  MaxCore 4096
end
*xyz  0  1
    C       14.5817104   14.3992724   16.6510157
    C       15.5729409   15.5653302   16.7917897
    O       16.8203196   15.1281735   16.2184321
    C       18.0455028   15.6173282   16.5977567
    O       19.0235326   14.8940112   16.5590302
    C       18.0433686   16.8654631   17.4210016
    C       17.5384593   18.0407409   16.9778034
    C       16.9547815   18.3303885   15.6113149
    N       17.6234977   19.1803194   17.7806070
    C       18.2894238   19.2437215   18.9771252
    S       18.3965737   20.6518944   19.8368916
    N       18.8607067   18.0788904   19.4279646
    C       18.7251261   16.7567595   18.7844650
    C       17.9737435   15.7739314   19.6779379
    C       18.4134684   14.4419366   19.7861651
    C       17.7133147   13.5180836   20.5795329
    C       16.5600146   13.9274466   21.2698452
    C       16.1145943   15.2513748   21.1603636
    O       14.9931374   15.6468147   21.8132906
    C       16.8133492   16.1693035   20.3697899
    H       14.9569177   13.5109160   17.1750455
    H       14.4346569   14.1407005   15.5949393
    H       13.6082401   14.6652747   17.0804771
    H       15.1830301   16.4498280   16.2760956
    H       15.6870712   15.7917866   17.8596318
    H       17.0283536   17.4719302   14.9324793
    H       17.4924107   19.1566240   15.1285187
    H       15.8979368   18.6150680   15.6823604
    H       17.2278294   20.0502111   17.4595871
    H       19.3294752   18.1515593   20.3222979
    H       19.7384505   16.3611475   18.6195719
    H       19.2945448   14.1165954   19.2366147
    H       18.0622325   12.4891186   20.6497676
    H       16.0145205   13.2155280   21.8805201
    H       14.6874234   14.8967573   22.3458055
    H       16.4463408   17.1877701   20.2981648
*
