! ri-mp2 cc-pvtz cc-pvtz/c TightSCF NoKeepInts

%scf
  MaxCore 4096
end
*xyz  0  1
    C       15.1453679   14.3137457   17.0199241
    C       16.4534470   13.9737660   16.2711432
    O       17.4632492   14.9837362   16.4814253
    C       17.1855346   16.3054779   16.2713875
    O       16.4350024   16.6678371   15.3814576
    C       17.7259138   17.1997886   17.3535671
    C       17.5252793   18.5423901   17.3546238
    C       16.7415061   19.3539216   16.3453852
    N       18.1105994   19.3374202   18.3448528
    C       19.0153122   18.8920706   19.2714925
    S       19.7616601   19.9198934   20.3308857
    N       19.2766632   17.5455750   19.2720468
    C       18.5469812   16.5422005   18.4753168
    C       17.6826637   15.6886700   19.3985403
    C       17.9752933   14.3251110   19.5899264
    C       17.1839146   13.5366232   20.4421420
    C       16.0934491   14.1168287   21.1124176
    C       15.8030740   15.4758158   20.9294409
    O       14.7506715   16.0387498   21.5745310
    C       16.5914612   16.2575648   20.0794792
    H       15.3368151   14.4787996   18.0861315
    H       14.4336053   13.4844327   16.9309684
    H       14.6624576   15.2085575   16.6088900
    H       16.8331154   13.0051026   16.6202806
    H       16.2391745   13.8855353   15.1975624
    H       17.1556382   19.2210312   15.3377707
    H       16.7426645   20.4281194   16.5641722
    H       15.6953754   19.0233299   16.3149013
    H       17.9339743   20.3292823   18.3549750
    H       19.9229057   17.2418663   19.9889508
    H       19.2965815   15.8920982   18.0025614
    H       18.8161059   13.8734375   19.0702501
    H       17.4173196   12.4825483   20.5821323
    H       15.4798710   13.5123113   21.7723236
    H       14.3600909   15.3594758   22.1445802
    H       16.3542611   17.3088855   19.9575636
*
