! ri-mp2 cc-pvtz cc-pvtz/c TightSCF NoKeepInts

%scf
  MaxCore 4096
end
*xyz  0  1
    C       14.2469640   15.6957102   16.2534885
    C       15.4584277   15.3220988   17.1268711
    O       16.6038022   15.1479045   16.2643905
    C       17.8498176   15.6686121   16.5161982
    O       18.8393999   14.9983883   16.2862465
    C       17.9230150   16.8546362   17.4219919
    C       17.3275916   18.0369483   17.1435181
    C       16.5590781   18.4012204   15.8940363
    N       17.4769154   19.1140648   18.0197793
    C       18.2767586   19.1091908   19.1330623
    S       18.4397183   20.4471076   20.0907770
    N       18.9323153   17.9360424   19.4168340
    C       18.7702396   16.6672171   18.6792542
    C       18.1659270   15.5807794   19.5636066
    C       18.6878834   14.2747614   19.5340957
    C       18.1184843   13.2578754   20.3183190
    C       17.0140265   13.5471402   21.1374328
    C       16.4862909   14.8448365   21.1644427
    O       15.4101210   15.1246094   21.9414854
    C       17.0546413   15.8553239   20.3824103
    H       13.3563596   15.8407916   16.8771332
    H       14.0324323   14.8912969   15.5386215
    H       14.4202891   16.6146882   15.6862139
    H       15.6064955   16.1053883   17.8787304
    H       15.2590018   14.3849924   17.6634354
    H       16.5570217   17.5922417   15.1536456
    H       17.0095398   19.2734182   15.4032669
    H       15.5176193   18.6501080   16.1302532
    H       17.0179338   19.9891834   17.8203809
    H       19.4993942   17.9560257   20.2551757
    H       19.7698682   16.3350779   18.3616191
    H       19.5295871   14.0429541   18.8845701
    H       18.5296875   12.2503259   20.2822871
    H       16.5694467   12.7631644   21.7417186
    H       15.2036029   14.3259059   22.4506085
    H       16.6273029   16.8519698   20.4180994
*
