! ri-mp2 cc-pvtz cc-pvtz/c TightSCF NoKeepInts

%scf
  MaxCore 4096
end
*xyz  0  1
    C       15.4505971   13.3782433   16.1815310
    C       15.7126036   14.7060609   16.9104273
    O       16.9196351   15.2643293   16.3572099
    C       16.9683840   16.6167927   16.1916396
    O       16.2324059   17.1462070   15.3785284
    C       17.5775188   17.3461967   17.3606021
    C       17.4230946   18.6833568   17.5463458
    C       16.5791188   19.6375595   16.7282525
    N       18.1333597   19.3348054   18.5599338
    C       19.1622363   18.7752640   19.2702037
    S       20.0841349   19.6578075   20.3221562
    N       19.3989284   17.4422926   19.0494444
    C       18.5001605   16.5472115   18.2987422
    C       17.7440348   15.6689478   19.2888595
    C       18.0851603   14.3106799   19.4334312
    C       17.3942503   13.4932359   20.3436504
    C       16.3587816   14.0392052   21.1212003
    C       16.0244733   15.3937748   20.9886990
    O       15.0260905   15.9243969   21.7382646
    C       16.7114491   16.2045074   20.0799076
    H       14.5282337   12.9125874   16.5490361
    H       16.2791501   12.6781123   16.3447710
    H       15.3450701   13.5459844   15.1021799
    H       14.8587816   15.3759355   16.7371369
    H       15.8009765   14.5342436   17.9881738
    H       15.5348996   19.3013026   16.6979164
    H       16.9391262   19.6791741   15.6922081
    H       16.5837124   20.6606706   17.1220269
    H       17.9814627   20.3178160   18.7208826
    H       20.1485208   17.0504288   19.6048762
    H       19.1260258   15.8968955   17.6711304
    H       18.8842322   13.8846798   18.8321833
    H       17.6633037   12.4430989   20.4458905
    H       15.8235089   13.4118807   21.8266605
    H       14.7206346   15.2360532   22.3484641
    H       16.4429433   17.2522614   20.0014339
*
