! ri-mp2 cc-pvtz cc-pvtz/c TightSCF NoKeepInts

%scf
  MaxCore 4096
end
*xyz  0  1
    C       16.1503158   13.1031572   17.2659622
    C       15.9006466   14.3980419   16.4750410
    O       17.1453706   15.1093143   16.3517717
    C       17.0700705   16.4550907   16.1364168
    O       16.2932117   16.8998605   15.3093086
    C       17.6541660   17.2787400   17.2520661
    C       17.5556975   18.6335370   17.2820254
    C       16.8483596   19.5283548   16.2862847
    N       18.1981969   19.3596201   18.2894533
    C       19.1029422   18.8321828   19.1714489
    S       19.9585786   19.7793335   20.2236659
    N       19.2801190   17.4733327   19.1209117
    C       18.4249805   16.5428755   18.3618399
    C       17.5292058   15.7923586   19.3448411
    C       18.0485538   14.6850544   20.0427089
    C       17.2602325   13.9894146   20.9748569
    C       15.9397377   14.4047820   21.2146180
    C       15.4218210   15.5134144   20.5318734
    O       14.1488534   15.9205906   20.7647660
    C       16.2096551   16.2073324   19.6082575
    H       16.9274677   12.4984745   16.7825976
    H       15.2328452   12.5047521   17.3177749
    H       16.4672016   13.3221711   18.2896139
    H       15.4973458   14.1704940   15.4792664
    H       15.1622833   15.0064126   17.0156427
    H       15.7752394   19.3001028   16.2571141
    H       17.2439347   19.3697548   15.2749292
    H       16.9536823   20.5949164   16.5170656
    H       18.0855517   20.3598796   18.3314337
    H       19.9346859   17.1111900   19.8017018
    H       19.0821665   15.8069253   17.8767599
    H       19.0698592   14.3615694   19.8602732
    H       17.6727942   13.1341228   21.5075073
    H       15.3263439   13.8705213   21.9328199
    H       13.7886860   15.3617813   21.4700925
    H       15.7861978   17.0725440   19.1112892
*
