! ri-mp2 cc-pvtz cc-pvtz/c TightSCF NoKeepInts

%scf
  MaxCore 4096
end
*xyz  0  1
    C       14.2394293   15.3620069   16.4501990
    C       15.6684400   14.9431598   16.8343989
    O       16.5850544   15.5934743   15.9360715
    C       17.8547202   15.7969541   16.3894647
    O       18.6248500   14.8551610   16.4526893
    C       17.9394917   16.9287920   17.3671869
    C       17.3219117   18.1194113   17.1732975
    C       16.5019347   18.5407052   15.9722969
    N       17.4929337   19.1502410   18.1015729
    C       18.3785925   19.1181974   19.1472277
    S       18.6105630   20.4264421   20.1316960
    N       19.0622594   17.9425887   19.3368672
    C       18.7998590   16.6848701   18.6101328
    C       18.1422669   15.6558100   19.5264050
    C       18.6342251   14.3389761   19.5846330
    C       18.0206947   13.3797985   20.4074444
    C       16.9032134   13.7386442   21.1799313
    C       16.4071505   15.0478301   21.1228630
    O       15.3206908   15.3949379   21.8574184
    C       17.0191372   16.0001078   20.3017944
    H       13.5067171   14.8248281   17.0647580
    H       14.0385676   15.1295360   15.3968568
    H       14.0892922   16.4359929   16.6059901
    H       15.8551353   15.2383999   17.8748939
    H       15.7844810   13.8534718   16.7621697
    H       16.8519658   18.0510661   15.0549904
    H       16.5618821   19.6214438   15.7935502
    H       15.4464852   18.2809578   16.1086921
    H       17.0037319   20.0223523   17.9759207
    H       19.6910460   17.9385596   20.1299491
    H       19.7677867   16.2823469   18.2772370
    H       19.4871818   14.0532412   18.9729613
    H       18.4092258   12.3632320   20.4384600
    H       16.4251895   13.0000106   21.8149378
    H       15.0840585   14.6313222   22.4054225
    H       16.6168352   17.0071303   20.2736196
*
