! ri-mp2 cc-pvtz cc-pvtz/c TightSCF NoKeepInts

%scf
  MaxCore 4096
end
*xyz  0  1
    C       14.3268437   15.6533212   16.1601384
    C       15.4262544   15.4398697   17.2156818
    O       16.6336935   15.0577708   16.5243537
    C       17.8179056   15.7547802   16.5045731
    O       18.8275912   15.1877504   16.1309297
    C       17.9204721   16.9033536   17.4508362
    C       17.3520716   18.1037461   17.2006495
    C       16.5626130   18.4920241   15.9712669
    N       17.5174614   19.1534546   18.1064497
    C       18.3022976   19.0964032   19.2293752
    S       18.4771522   20.3992968   20.2322253
    N       18.9291033   17.9008417   19.4860605
    C       18.7606291   16.6605725   18.7019296
    C       18.1489174   15.5436987   19.5414040
    C       18.6518308   14.2334897   19.4447672
    C       18.0748186   13.1886313   20.1854315
    C       16.9816276   13.4540698   21.0274394
    C       16.4723252   14.7561080   21.1201769
    O       15.4061271   15.0132339   21.9185326
    C       17.0484673   15.7947716   20.3820270
    H       14.6049022   16.4330122   15.4430358
    H       13.3847866   15.9453997   16.6400261
    H       14.1505599   14.7253591   15.6014530
    H       15.5377792   16.3405743   17.8284262
    H       15.1262126   14.6245156   17.8872364
    H       16.6554194   17.7498064   15.1688840
    H       16.9209767   19.4444507   15.5601481
    H       15.4977250   18.6061402   16.2074618
    H       17.0767762   20.0428622   17.9303457
    H       19.4841910   17.8830458   20.3324410
    H       19.7585189   16.3345692   18.3727604
    H       19.4834698   14.0210270   18.7760544
    H       18.4705196   12.1781359   20.0972513
    H       16.5307099   12.6484038   21.5974683
    H       15.1913674   14.1933897   22.3891905
    H       16.6348832   16.7941204   20.4675688
*
