! ri-mp2 cc-pvtz cc-pvtz/c TightSCF NoKeepInts

%scf
  MaxCore 4096
end
*xyz  0  1
    C       14.2651393   15.7422131   16.3765439
    C       15.5221880   15.1999246   17.0798931
    O       16.6239042   15.2095733   16.1457880
    C       17.8679853   15.6866839   16.4733504
    O       18.8463853   14.9825705   16.3043477
    C       17.9114890   16.8592624   17.3990795
    C       17.3072343   18.0387708   17.1250355
    C       16.5720009   18.4224149   15.8600516
    N       17.4406030   19.1097915   18.0115229
    C       18.2433889   19.1086048   19.1225428
    S       18.3981230   20.4449522   20.0838329
    N       18.9125052   17.9415342   19.3985381
    C       18.7502955   16.6712499   18.6636922
    C       18.1449503   15.5871175   19.5513188
    C       18.6475158   14.2739415   19.5031490
    C       18.0804364   13.2597275   20.2924226
    C       16.9983550   13.5589450   21.1372707
    C       16.4907572   14.8640104   21.1850479
    O       15.4368118   15.1538729   21.9883818
    C       17.0563820   15.8716556   20.3972927
    H       13.3885852   15.6274768   17.0259441
    H       14.0746901   15.1873755   15.4491540
    H       14.3626703   16.8028632   16.1309958
    H       15.7190541   15.8061354   17.9715841
    H       15.3445693   14.1695448   17.4152092
    H       16.4632205   17.5848649   15.1614016
    H       17.1183799   19.2089809   15.3241174
    H       15.5695786   18.8063313   16.0840682
    H       16.9749215   19.9820781   17.8155170
    H       19.4836211   17.9644169   20.2340442
    H       19.7513762   16.3372783   18.3526117
    H       19.4734612   14.0348431   18.8361629
    H       18.4771506   12.2469993   20.2416443
    H       16.5560616   12.7774167   21.7464090
    H       15.2298730   14.3548946   22.4968095
    H       16.6433366   16.8736838   20.4492249
*
