! ri-mp2 cc-pvtz cc-pvtz/c TightSCF NoKeepInts

%scf
  MaxCore 4096
end
*xyz  0  1
    C       14.1723109   15.3044973   16.2498013
    C       15.4184810   15.5013005   17.1282179
    O       16.5675292   15.2085052   16.3061636
    C       17.8246467   15.7223115   16.5082283
    O       18.8007707   15.0445032   16.2457750
    C       17.9333843   16.8928520   17.4292744
    C       17.3579425   18.0879531   17.1617715
    C       16.5499493   18.4532569   15.9346226
    N       17.5393345   19.1587208   18.0394607
    C       18.3529916   19.1320793   19.1427472
    S       18.5519989   20.4611821   20.1058865
    N       18.9891674   17.9446801   19.4132925
    C       18.7972797   16.6830996   18.6699155
    C       18.1840034   15.6018089   19.5534189
    C       18.6948265   14.2914852   19.5244010
    C       18.1148246   13.2795254   20.3072762
    C       17.0106349   13.5781709   21.1234748
    C       16.4933693   14.8801447   21.1486843
    O       15.4168059   15.1687497   21.9219698
    C       17.0723186   15.8857863   20.3682232
    H       13.2591542   15.4878622   16.8290744
    H       14.1326202   14.2782004   15.8631722
    H       14.1846571   15.9942408   15.3969242
    H       15.4085256   16.5255814   17.5114938
    H       15.3925941   14.8178587   17.9877501
    H       16.6065473   17.6836508   15.1548425
    H       16.9192145   19.3838149   15.4849648
    H       15.4918501   18.5961409   16.1857572
    H       17.0929648   20.0428977   17.8515212
    H       19.5654701   17.9494380   20.2455517
    H       19.7860380   16.3357704   18.3350416
    H       19.5353718   14.0525333   18.8760829
    H       18.5170456   12.2683550   20.2718441
    H       16.5576085   12.7978498   21.7261919
    H       15.2013388   14.3711947   22.4292089
    H       16.6534295   16.8859980   20.4019737
*
