! ri-mp2 cc-pvtz cc-pvtz/c TightSCF NoKeepInts

%scf
  MaxCore 4096
end
*xyz  0  1
    C       14.9071868   14.8821721   16.1067063
    C       16.0941694   14.4850934   17.0070584
    O       17.3332664   14.8953220   16.3869150
    C       17.5732575   16.2156362   16.1330379
    O       17.3649141   16.6624388   15.0198255
    C       17.7416590   17.0768128   17.3545206
    C       17.3380434   18.3718649   17.3793853
    C       16.5227356   19.0959416   16.3301304
    N       17.7218999   19.2025140   18.4364260
    C       18.6976184   18.8905811   19.3467377
    S       19.2535001   19.9916409   20.4482168
    N       19.1972350   17.6131112   19.2903536
    C       18.6007256   16.5167715   18.5037142
    C       17.8590424   15.5780499   19.4482592
    C       18.2382930   14.2258241   19.5471858
    C       17.5559129   13.3532399   20.4113593
    C       16.4895037   13.8367855   21.1882973
    C       16.1149688   15.1843371   21.1003184
    O       15.0839890   15.6538004   21.8463904
    C       16.7937265   16.0501940   20.2372745
    H       14.7932231   15.9717899   16.0551628
    H       13.9725664   14.4633099   16.4988147
    H       15.0518573   14.5016651   15.0874589
    H       15.9502771   14.9469942   17.9867685
    H       16.1012207   13.3960133   17.1432418
    H       15.6830032   18.4767197   15.9912710
    H       17.1407772   19.3156597   15.4498069
    H       16.1053417   20.0419449   16.6944268
    H       17.3817295   20.1503629   18.4736683
    H       19.9015703   17.4052961   19.9868572
    H       19.4266413   15.9530208   18.0470494
    H       19.0599518   13.8464513   18.9447405
    H       17.8553842   12.3084246   20.4784810
    H       15.9604120   13.1663657   21.8579546
    H       14.7913782   14.9353955   22.4275565
    H       16.4900186   17.0904548   20.1886285
*
