! ri-mp2 cc-pvtz cc-pvtz/c TightSCF NoKeepInts

%scf
  MaxCore 4096
end
*xyz  0  1
    C       15.2571403   14.2646863   16.9910556
    C       15.5278782   14.9640235   15.6377349
    O       16.4799452   16.0430627   15.7676772
    C       17.6124810   15.9105357   16.5187334
    O       18.2213366   14.8560433   16.5954165
    C       17.8648644   17.0562573   17.4535197
    C       17.3994783   18.3196062   17.2762029
    C       16.5866852   18.8560707   16.1160623
    N       17.7241283   19.3152616   18.2032256
    C       18.5956878   19.1599273   19.2487872
    S       19.0034158   20.4214561   20.2376763
    N       19.1119249   17.9024306   19.4341429
    C       18.6961798   16.6990989   18.6894235
    C       17.9233489   15.7457753   19.5971298
    C       18.3376827   14.4094049   19.7462551
    C       17.6164633   13.5226317   20.5630791
    C       16.4693318   13.9747847   21.2370152
    C       16.0512745   15.3040985   21.0884828
    O       14.9385554   15.7413326   21.7301608
    C       16.7712290   16.1844266   20.2749224
    H       16.1138026   13.6634181   17.3195169
    H       14.3989134   13.5881103   16.9015499
    H       15.0285177   14.9997774   17.7730199
    H       15.9130771   14.2199998   14.9277793
    H       14.5879508   15.3598717   15.2324386
    H       15.5523183   18.4941940   16.1684296
    H       17.0104845   18.5292303   15.1582179
    H       16.5547904   19.9521465   16.0942012
    H       17.3556661   20.2454815   18.0851054
    H       19.7273982   17.8077617   20.2317479
    H       19.6069063   16.1880066   18.3449663
    H       19.2123608   14.0517301   19.2083929
    H       17.9440130   12.4895114   20.6643761
    H       15.9077733   13.2923989   21.8662692
    H       14.6132100   15.0101881   22.2765315
    H       16.4307858   17.2092592   20.1747541
*
