! ri-mp2 cc-pvtz cc-pvtz/c TightSCF NoKeepInts

%scf
  MaxCore 4096
end
*xyz  0  1
    C       15.2139119   14.7582455   17.2394882
    C       15.6345934   14.9257606   15.7630534
    O       16.6667359   15.9242111   15.6252679
    C       17.7847385   15.8652321   16.4051523
    O       18.3835587   14.8139684   16.5595722
    C       17.8947009   16.9932331   17.3907855
    C       17.3562987   18.2270692   17.2100541
    C       16.5713837   18.7326467   16.0171518
    N       17.5740889   19.2263209   18.1642113
    C       18.4380767   19.1226414   19.2224589
    S       18.7414852   20.3999188   20.2283355
    N       19.0388282   17.9025581   19.4034712
    C       18.6950210   16.6762417   18.6592977
    C       17.9347730   15.7038109   19.5570883
    C       18.3852424   14.3802774   19.7160877
    C       17.6805057   13.4760769   20.5282120
    C       16.5136922   13.8976283   21.1880326
    C       16.0603366   15.2142807   21.0310008
    O       14.9283299   15.6218191   21.6582106
    C       16.7642999   16.1122192   20.2227892
    H       16.0095991   14.2852342   17.8283861
    H       14.3268930   14.1176086   17.3113959
    H       14.9709284   15.7274563   17.6922678
    H       15.9977147   13.9621379   15.3807515
    H       14.7639573   15.2205050   15.1634391
    H       15.5604532   18.3067221   16.0100975
    H       17.0628134   18.4503109   15.0776000
    H       16.4719468   19.8249014   16.0096112
    H       17.1440736   20.1299010   18.0469750
    H       19.6491492   17.8433264   20.2084554
    H       19.6361256   16.1976509   18.3518158
    H       19.2759460   14.0458263   19.1895517
    H       18.0361890   12.4530057   20.6367326
    H       15.9646285   13.2014773   21.8132570
    H       14.6199364   14.8850834   22.2069592
    H       16.3960445   17.1266924   20.1169832
*
