! ri-mp2 cc-pvtz cc-pvtz/c TightSCF NoKeepInts

%scf
  MaxCore 4096
end
*xyz  0  1
    C       14.9796773   14.1579563   15.8995176
    C       16.4413195   13.9036306   16.3275721
    O       17.2225002   15.0843843   16.6494217
    C       16.8263025   16.3955523   16.5582549
    O       15.9966483   16.8008084   15.7636914
    C       17.5811392   17.2800206   17.5141764
    C       17.4432284   18.6308303   17.5233588
    C       16.5600466   19.4708174   16.6253087
    N       18.1875445   19.4066366   18.4171002
    C       19.1448104   18.9233796   19.2681214
    S       20.0360126   19.9216014   20.2404186
    N       19.3292878   17.5647256   19.2735615
    C       18.5126845   16.5911718   18.5263251
    C       17.7411757   15.7093194   19.5041648
    C       18.0800062   14.3519375   19.6595806
    C       17.3676824   13.5351186   20.5537691
    C       16.3099064   14.0804619   21.3012241
    C       15.9737500   15.4331853   21.1532660
    O       14.9542974   15.9630263   21.8750000
    C       16.6843178   16.2434816   20.2624505
    H       14.4497219   14.7666174   16.6430048
    H       14.4435831   13.2064825   15.8013248
    H       14.9336651   14.6637364   14.9269186
    H       16.4328580   13.2495671   17.2091864
    H       16.9480475   13.3530273   15.5246448
    H       15.5057730   19.1946572   16.7551597
    H       16.8136120   19.3050047   15.5704825
    H       16.6469227   20.5459843   16.8207241
    H       18.0663213   20.4067339   18.4266686
    H       20.0145039   17.2349360   19.9410012
    H       19.2062648   15.9554562   17.9581862
    H       18.8953088   13.9274536   19.0798924
    H       17.6365453   12.4862741   20.6667183
    H       15.7572500   13.4541906   21.9938357
    H       14.6111187   15.2643229   22.4519350
    H       16.4131661   17.2895100   20.1680334
*
