! ri-mp2 cc-pvtz cc-pvtz/c TightSCF NoKeepInts

%scf
  MaxCore 4096
end
*xyz  0  1
    C       14.6936089   14.1773525   16.0835135
    C       15.6034229   15.0712524   15.2190110
    O       16.5681641   15.2205107   16.2790149
    C       17.7393248   15.8473366   16.4628027
    O       18.5506931   14.9529564   16.7110619
    C       17.7643492   16.8927291   17.5452702
    C       17.2776284   18.2127295   17.3675683
    C       16.4320707   18.7655464   16.2651435
    N       17.7466357   19.2228681   18.1966018
    C       18.7235997   19.1307711   19.1482158
    S       19.3640506   20.4282161   19.9408697
    N       19.1683660   17.8539133   19.4046059
    C       18.6446991   16.6480598   18.7705985
    C       17.9568885   15.7632498   19.8089823
    C       18.4404970   14.4763567   20.0556889
    C       17.8048916   13.6384106   20.9917965
    C       16.6778246   14.1143506   21.6847296
    C       16.2018264   15.4071600   21.4499700
    O       15.1089040   15.8665697   22.1109197
    C       16.8382617   16.2398690   20.5173740
    H       15.3046469   13.6032567   16.8101951
    H       14.2391553   13.3896536   15.4849802
    H       13.9512746   14.7170056   16.6790523
    H       15.8506010   14.5689517   14.2550923
    H       15.0960338   16.0332137   14.9923463
    H       15.9994892   18.0117361   15.6076486
    H       16.9984806   19.4804319   15.6439273
    H       15.5888886   19.3379880   16.6940643
    H       17.4932895   20.1923871   17.9807815
    H       19.8539751   17.7806936   20.1409123
    H       19.5360285   16.1073999   18.4207851
    H       19.3005740   14.1040239   19.5022938
    H       18.1778464   12.6323383   21.1563076
    H       16.1749668   13.4655730   22.3966508
    H       14.8197367   15.1604166   22.7080308
    H       16.4563062   17.2367220   20.3471928
*
