! ri-mp2 cc-pvtz cc-pvtz/c TightSCF NoKeepInts

%scf
  MaxCore 4096
end
*xyz  0  1
    C       14.5058056   15.1814116   16.4291581
    C       15.7262793   15.0544613   17.3561805
    O       16.8964849   14.9810487   16.5168191
    C       17.7662498   16.0220840   16.3228303
    O       18.2963733   16.1899943   15.2408418
    C       17.8501459   17.0522052   17.4024068
    C       17.4563755   18.3228514   17.1654777
    C       16.7914807   18.8208503   15.9017906
    N       17.6679922   19.3135289   18.1265273
    C       18.3575162   19.1274781   19.2958902
    S       18.6012288   20.3603964   20.3703131
    N       18.8344367   17.8623252   19.5379397
    C       18.5984191   16.6758479   18.6904489
    C       17.9501112   15.5530264   19.4950165
    C       18.3834784   14.2247469   19.3241988
    C       17.7904601   13.1788538   20.0507212
    C       16.7576266   13.4618687   20.9602757
    C       16.3265419   14.7829997   21.1387461
    O       15.3239590   15.0591498   22.0093769
    C       16.9168597   15.8225970   20.4129486
    H       14.5604801   16.1007691   15.8340928
    H       13.5786194   15.2049983   17.0146163
    H       14.4551696   14.3283311   15.7407264
    H       15.7409153   15.9051618   18.0455258
    H       15.6386338   14.1325939   17.9460781
    H       15.9966748   18.1382305   15.5785421
    H       17.5235643   18.8772720   15.0850663
    H       16.3445041   19.8147169   16.0228871
    H       17.3460107   20.2532583   17.9563327
    H       19.3224072   17.7562299   20.4187435
    H       19.5883587   16.3135207   18.3772831
    H       19.1764673   13.9989004   18.6150961
    H       18.1309133   12.1545809   19.9058911
    H       16.2964965   12.6562153   21.5226038
    H       15.0874596   14.2322615   22.4567853
    H       16.5625003   16.8372337   20.5658219
*
