! ri-mp2 cc-pvtz cc-pvtz/c TightSCF NoKeepInts

%scf
  MaxCore 4096
end
*xyz  0  1
    C       15.3023431   14.2702130   17.1991160
    C       16.4597288   14.0276189   16.2097194
    O       17.5325438   14.9634654   16.4440613
    C       17.3320206   16.2856466   16.1614509
    O       16.6393151   16.6275570   15.2181326
    C       17.7014250   17.1923967   17.3043485
    C       17.3893137   18.5141855   17.3167003
    C       16.5920461   19.2819676   16.2838884
    N       17.8657663   19.3354899   18.3435668
    C       18.8042696   18.9602921   19.2680041
    S       19.4490078   20.0341998   20.3482062
    N       19.1921608   17.6447666   19.2424203
    C       18.5313500   16.5906621   18.4512577
    C       17.7077020   15.7094081   19.3847383
    C       18.1139611   14.3892891   19.6569570
    C       17.3774986   13.5820654   20.5405443
    C       16.2269195   14.0995656   21.1599468
    C       15.8223959   15.4153066   20.8953383
    O       14.7121252   15.9178580   21.4914468
    C       16.5573226   16.2162973   20.0158466
    H       15.6240868   14.0813561   18.2280908
    H       14.4688558   13.5921951   16.9801777
    H       14.9257146   15.2983528   17.1318530
    H       16.8345051   13.0047191   16.3422436
    H       16.0942757   14.1195283   15.1776721
    H       17.0865468   19.2394818   15.3050419
    H       16.4596376   20.3390094   16.5425513
    H       15.5928698   18.8438352   16.1648003
    H       17.5988014   20.3066860   18.3680616
    H       19.8636729   17.3895797   19.9549590
    H       19.3209116   15.9724168   18.0013639
    H       19.0036660   13.9867851   19.1800792
    H       17.6997924   12.5623071   20.7440591
    H       15.6553726   13.4804353   21.8436110
    H       14.3747088   15.2413392   22.0976191
    H       16.2343667   17.2357219   19.8361256
*
