! ri-mp2 cc-pvtz cc-pvtz/c TightSCF NoKeepInts

%scf
  MaxCore 4096
end
*xyz  0  1
    C       14.7309315   14.7536071   17.4061984
    C       15.6918425   15.2028221   16.2933445
    O       17.0261608   14.9234781   16.7389549
    C       18.0485093   15.7822219   16.4611325
    O       19.1337816   15.3017685   16.1944369
    C       18.0067478   16.9497758   17.3851008
    C       17.5083639   18.1446672   16.9984645
    C       16.9287272   18.4905085   15.6437673
    N       17.5590283   19.2346061   17.8701098
    C       18.1966753   19.2312160   19.0837596
    S       18.2705579   20.5868623   20.0280131
    N       18.7687525   18.0459654   19.4777976
    C       18.6545133   16.7609131   18.7581283
    C       17.9163372   15.7201308   19.5947241
    C       18.3857267   14.3944919   19.6413891
    C       17.7090311   13.4206761   20.3944518
    C       16.5512851   13.7740424   21.1079271
    C       16.0781035   15.0921932   21.0610198
    O       14.9522045   15.4330367   21.7370837
    C       16.7534846   16.0601028   20.3107976
    H       14.9000966   13.6997081   17.6611222
    H       13.6880137   14.8680527   17.0872526
    H       14.8790866   15.3539182   18.3113790
    H       15.4851153   14.6557531   15.3641278
    H       15.5397588   16.2713224   16.1101343
    H       17.1571583   17.7311160   14.8861985
    H       17.3441525   19.4359964   15.2716693
    H       15.8388375   18.6021723   15.6986239
    H       17.1568349   20.1169285   17.5953193
    H       19.2135223   18.0679140   20.3866486
    H       19.6749791   16.3882349   18.5857741
    H       19.2698540   14.1143795   19.0729784
    H       18.0789438   12.3971362   20.4153109
    H       16.0234275   13.0238519   21.6871272
    H       14.6613743   14.6498558   22.2281460
    H       16.3650800   17.0725742   20.2855865
*
