! ri-mp2 cc-pvtz cc-pvtz/c TightSCF NoKeepInts

%scf
  MaxCore 4096
end
*xyz  0  1
    C       15.8963445   14.0163418   14.6409150
    C       15.0408694   14.9925524   15.4797575
    O       15.8268329   15.9513369   16.2275738
    C       16.9597583   15.6528669   16.9362457
    O       17.3738616   14.5169757   17.0938653
    C       17.5441884   16.8184602   17.6858020
    C       17.2565701   18.1271021   17.4529951
    C       16.3193571   18.7121775   16.4158387
    N       17.9209410   19.1231908   18.1770244
    C       18.9804955   18.9076452   19.0178424
    S       19.7999072   20.1574688   19.7265535
    N       19.3262186   17.5993137   19.2397530
    C       18.5466272   16.4343623   18.7814880
    C       17.8445262   15.7653414   19.9606833
    C       18.0287418   14.3934175   20.2138695
    C       17.3848435   13.7714076   21.2966565
    C       16.5483725   14.5270944   22.1355782
    C       16.3589724   15.8928966   21.8850497
    O       15.5471440   16.6240966   22.6898941
    C       17.0009489   16.5091093   20.8063253
    H       16.7089249   14.5461746   14.1287319
    H       15.2752578   13.5301041   13.8790968
    H       16.3286287   13.2217407   15.2609847
    H       14.3610065   15.5396540   14.8141993
    H       14.4233556   14.4074705   16.1740374
    H       15.2769442   18.4671391   16.6549452
    H       16.5425120   18.3117753   15.4191586
    H       16.3919592   19.8043069   16.3464854
    H       17.6812961   20.0902726   18.0282262
    H       20.0900175   17.4643622   19.8895510
    H       19.2548963   15.7125315   18.3496461
    H       18.6611999   13.8028116   19.5555248
    H       17.5307168   12.7079555   21.4769449
    H       16.0474685   14.0502914   22.9713858
    H       15.2244516   16.0343073   23.3875165
    H       16.8428433   17.5679452   20.6338544
*
