! ri-mp2 cc-pvtz cc-pvtz/c TightSCF NoKeepInts

%scf
  MaxCore 4096
end
*xyz  0  1
    C       15.0134709   14.0555807   16.6092460
    C       16.4525580   13.9928430   16.0504202
    O       17.2646683   15.0569505   16.5878459
    C       16.8865324   16.3702346   16.5092744
    O       16.0784470   16.7715037   15.6891639
    C       17.6523998   17.2473713   17.4602743
    C       17.5622191   18.6013029   17.4383983
    C       16.7332949   19.4493969   16.4976885
    N       18.3087270   19.3685385   18.3375893
    C       19.2163782   18.8677210   19.2321204
    S       20.1105706   19.8527939   20.2149791
    N       19.3470171   17.5031343   19.2736461
    C       18.5251274   16.5444685   18.5126287
    C       17.6841425   15.7056576   19.4709681
    C       17.9271984   14.3266979   19.6146333
    C       17.1450893   13.5497652   20.4857133
    C       16.1131222   14.1567163   21.2216102
    C       15.8715220   15.5305532   21.0846143
    O       14.8759488   16.1194565   21.7937651
    C       16.6512492   16.3010345   20.2166310
    H       15.0270728   14.1419893   17.7033381
    H       14.4658845   13.1423558   16.3474718
    H       14.4530017   14.9040675   16.1990245
    H       16.9042810   13.0282665   16.3147742
    H       16.4200194   14.0639052   14.9549647
    H       17.0028698   19.2440067   15.4538744
    H       16.8591722   20.5253360   16.6657872
    H       15.6662766   19.2185447   16.6109896
    H       18.2257504   20.3724854   18.3224598
    H       19.9945768   17.1621561   19.9723873
    H       19.2161798   15.8765021   17.9794930
    H       18.7199033   13.8538596   19.0411232
    H       17.3391884   12.4835204   20.5880093
    H       15.5064057   13.5610523   21.8956828
    H       14.4752652   15.4386379   22.3547853
    H       16.4514692   17.3635933   20.1286245
*
