! ri-mp2 cc-pvtz cc-pvtz/c TightSCF NoKeepInts

%scf
  MaxCore 4096
end
*xyz  0  1
    C       14.9511400   16.0836416   17.2647284
    C       15.5229251   14.9992569   16.3292873
    O       16.9149300   15.0819861   15.9091198
    C       18.0320103   15.6421336   16.4893066
    O       19.0880589   15.0400056   16.4259707
    C       17.8979585   16.8140598   17.4016738
    C       17.4029899   18.0004092   16.9771016
    C       16.9259661   18.3441478   15.5805836
    N       17.4179811   19.1064986   17.8293967
    C       18.0131844   19.1330885   19.0633887
    S       18.0296837   20.5022126   19.9904721
    N       18.6014146   17.9681886   19.4903452
    C       18.5604093   16.6757022   18.7768334
    C       17.9073617   15.5814447   19.6213644
    C       18.3754753   14.2568812   19.5344647
    C       17.7845644   13.2335993   20.2938411
    C       16.7147132   13.5345424   21.1530035
    C       16.2452901   14.8511981   21.2465853
    O       15.2072230   15.1445748   22.0692920
    C       16.8357300   15.8682401   20.4895856
    H       15.5139828   16.1663345   18.1966295
    H       13.9258918   15.8122017   17.5449338
    H       14.8909387   17.0580508   16.7728116
    H       15.4054212   14.0417045   16.8539071
    H       14.8921569   14.9370780   15.4330993
    H       16.7003576   17.4570777   14.9785798
    H       17.6983806   18.9087885   15.0430199
    H       16.0175624   18.9584030   15.6060378
    H       17.0198061   19.9801033   17.5227660
    H       19.0240013   18.0150595   20.4089891
    H       19.6029413   16.3701156   18.6026361
    H       19.1997078   14.0167475   18.8657972
    H       18.1563536   12.2135406   20.2119287
    H       16.2545661   12.7467178   21.7402748
    H       14.9688104   14.3307529   22.5384876
    H       16.4471120   16.8775123   20.5777571
*
