! ri-mp2 cc-pvtz cc-pvtz/c TightSCF NoKeepInts

%scf
  MaxCore 4096
end
*xyz  0  1
    C       14.4839976   16.0647898   16.5615025
    C       15.5799933   15.0940562   17.0365536
    O       16.7198087   15.1160190   16.1486789
    C       17.9143676   15.7295334   16.4374469
    O       18.9570269   15.1420354   16.2166155
    C       17.8692441   16.8605634   17.4094516
    C       17.3006275   18.0470081   17.0961685
    C       16.6899643   18.4394634   15.7672083
    N       17.3751612   19.1130925   17.9948750
    C       18.0967474   19.1010609   19.1602022
    S       18.1825554   20.4283644   20.1424364
    N       18.7493570   17.9330153   19.4705791
    C       18.6517433   16.6703933   18.7105607
    C       18.0583198   15.5478692   19.5573280
    C       18.5478865   14.2355694   19.4235065
    C       17.9971170   13.1843296   20.1748069
    C       16.9451605   13.4452710   21.0688512
    C       16.4508548   14.7494072   21.2031926
    O       15.4262210   15.0026780   22.0552903
    C       16.9994085   15.7942085   20.4524179
    H       14.6586386   17.0765661   16.9389969
    H       13.5078970   15.7424986   16.9445970
    H       14.4253708   16.0894896   15.4661009
    H       15.8541130   15.2955262   18.0775018
    H       15.1616030   14.0794472   17.0092993
    H       16.5069878   17.5773301   15.1152868
    H       17.3642166   19.1126983   15.2225791
    H       15.7340342   18.9602409   15.9011986
    H       16.9286742   19.9887283   17.7713329
    H       19.2640020   17.9506094   20.3421592
    H       19.6747849   16.3729246   18.4356815
    H       19.3529436   14.0272799   18.7212597
    H       18.3843169   12.1732807   20.0584372
    H       16.5161525   12.6353760   21.6498356
    H       15.2248719   14.1777338   22.5227573
    H       16.5928306   16.7935424   20.5693036
*
