! ri-mp2 cc-pvtz cc-pvtz/c TightSCF NoKeepInts

%scf
  MaxCore 4096
end
*xyz  0  1
    C       14.6911496   14.1765484   16.0842741
    C       15.6027371   15.0736171   15.2200830
    O       16.5679676   15.2170623   16.2813303
    C       17.7434870   15.8442004   16.4649767
    O       18.5522315   14.9580543   16.7021467
    C       17.7578366   16.9144556   17.5434912
    C       17.2846127   18.1925420   17.3695815
    C       16.4300325   18.7691451   16.2626511
    N       17.7444900   19.2326796   18.1970389
    C       18.7242165   19.1246050   19.1487309
    S       19.3633953   20.4294493   19.9407393
    N       19.1671346   17.8587390   19.4039011
    C       18.6475466   16.6420968   18.7717776
    C       17.9562567   15.7667219   19.8068627
    C       18.4406334   14.4730540   20.0566360
    C       17.8048704   13.6401140   20.9908034
    C       16.6779262   14.1123775   21.6855036
    C       16.2017520   15.4095521   21.4487282
    O       15.1090030   15.8661328   22.1111550
    C       16.8382444   16.2373084   20.5182527
    H       15.3017032   13.6021131   16.8099087
    H       14.2360023   13.3905782   15.4830674
    H       13.9501603   14.7183502   16.6777165
    H       15.8556461   14.5694688   14.2615830
    H       15.0967725   16.0314311   14.9928702
    H       16.0000620   18.0102328   15.6076640
    H       16.9985363   19.4788923   15.6441363
    H       15.5896152   19.3366284   16.6934037
    H       17.4930360   20.1885938   17.9817556
    H       19.8544904   17.7804258   20.1412843
    H       19.5362164   16.1072260   18.4213946
    H       19.3003429   14.1040605   19.5022478
    H       18.1779012   12.6318432   21.1566808
    H       16.1750632   13.4659769   22.3966078
    H       14.8196977   15.1604830   22.7080778
    H       16.4562304   17.2372403   20.3469373
*
