! ri-mp2 cc-pvtz cc-pvtz/c TightSCF NoKeepInts

%scf
  MaxCore 4096
end
*xyz  0  1
    C       15.2104956   14.9907905   17.1044094
    C       16.3285525   14.1516298   16.4475217
    O       17.6273679   14.7912587   16.4670939
    C       17.7543900   16.0988399   16.0999946
    O       17.3576864   16.4474118   15.0020612
    C       17.8211211   17.0288347   17.2819904
    C       17.4067811   18.3207076   17.2250256
    C       16.6863301   19.0089657   16.0854976
    N       17.7029528   19.1931345   18.2774493
    C       18.6126578   18.9270157   19.2674511
    S       19.0832893   20.0769160   20.3588216
    N       19.1146981   17.6498890   19.3042941
    C       18.5690744   16.5198722   18.5279323
    C       17.7260958   15.6327016   19.4415541
    C       17.9869599   14.2516142   19.5262669
    C       17.2275451   13.4286019   20.3746165
    C       16.2029085   13.9910417   21.1542396
    C       15.9465980   15.3669092   21.0834435
    O       14.9565266   15.9127590   21.8332232
    C       16.7022166   16.1832616   20.2359692
    H       15.3925002   15.1324136   18.1717310
    H       14.2499943   14.4710770   17.0051539
    H       15.1025500   15.9717935   16.6266158
    H       16.3964500   13.1787099   16.9509176
    H       16.0475424   13.9628276   15.4026991
    H       17.3483473   19.1064631   15.2154694
    H       16.3293912   20.0114281   16.3488985
    H       15.8142848   18.4236523   15.7681836
    H       17.3527710   20.1375969   18.2537832
    H       19.7630129   17.4722755   20.0608084
    H       19.4231725   15.9235814   18.1771244
    H       18.7774178   13.8119472   18.9233916
    H       17.4359832   12.3613668   20.4278039
    H       15.6142072   13.3596840   21.8117177
    H       14.5892870   15.2096239   22.3897229
    H       16.4858404   17.2454039   20.2011233
*
