! ri-mp2 cc-pvtz cc-pvtz/c TightSCF NoKeepInts

%scf
  MaxCore 4096
end
*xyz  0  1
    C       15.1079434   15.6092817   17.4380715
    C       15.5294869   15.3113587   15.9831845
    O       16.9544782   15.1316532   15.7690182
    C       18.0489777   15.5775333   16.4765927
    O       19.0505095   14.8859453   16.5042633
    C       17.9228418   16.7604761   17.3862823
    C       17.3897076   17.9420024   16.9887854
    C       16.8362325   18.2931894   15.6241695
    N       17.4122822   19.0421111   17.8495168
    C       18.0992740   19.0918047   19.0336441
    S       18.1606195   20.4696477   19.9456932
    N       18.7371630   17.9403081   19.4218857
    C       18.6145768   16.6320072   18.7483849
    C       17.9094862   15.6127772   19.6401077
    C       18.3440603   14.2744915   19.6566789
    C       17.6980500   13.3196686   20.4592261
    C       16.6057483   13.7042475   21.2547521
    C       16.1673739   15.0349656   21.2412693
    O       15.1057125   15.4073488   21.9993957
    C       16.8119821   15.9837189   20.4411156
    H       15.6223314   14.9348612   18.1327157
    H       14.0320296   15.4293377   17.5521401
    H       15.2832874   16.6461512   17.7362585
    H       15.0265003   14.3905170   15.6600042
    H       15.1553051   16.1120089   15.3344112
    H       17.1387551   17.5720292   14.8554197
    H       17.2070669   19.2706079   15.2897761
    H       15.7410900   18.3408616   15.6417932
    H       16.9674864   19.9031418   17.5727012
    H       19.2256190   18.0000909   20.3064356
    H       19.6349024   16.2625555   18.5671320
    H       19.1820722   13.9700298   19.0328256
    H       18.0432933   12.2871160   20.4580575
    H       16.1027056   12.9690675   21.8741653
    H       14.8301338   14.6334132   22.5134925
    H       16.4479150   17.0056735   20.4446342
*
