! ri-mp2 cc-pvtz cc-pvtz/c TightSCF NoKeepInts

%scf
  MaxCore 4096
end
*xyz  0  1
    C       15.1416942   13.9370209   15.9894390
    C       15.6443881   15.0612366   15.0546393
    O       16.3852691   16.0839563   15.7598307
    C       17.3275369   15.8135037   16.7127944
    O       17.8778168   14.7289181   16.8064069
    C       17.7054866   16.9790029   17.5857747
    C       17.2778065   18.2607837   17.4286047
    C       16.3415825   18.8193223   16.3760510
    N       17.7577512   19.2616180   18.2807810
    C       18.7570991   19.0966227   19.2026735
    S       19.3552267   20.3665508   20.0774618
    N       19.2340631   17.8211738   19.3628150
    C       18.6469424   16.6194394   18.7420264
    C       17.9291239   15.7725420   19.7901581
    C       18.2545010   14.4130925   19.9519652
    C       17.5941664   13.6271357   20.9111770
    C       16.5985798   14.2045552   21.7173563
    C       16.2686446   15.5571524   21.5572172
    O       15.3031909   16.1161479   22.3297513
    C       16.9272201   16.3367216   20.6011529
    H       15.9502154   13.2544134   16.2773171
    H       14.3771982   13.3376515   15.4806959
    H       14.6943699   14.3549553   16.8998993
    H       16.2826935   14.6149601   14.2805847
    H       14.7873980   15.5272646   14.5517658
    H       15.3494784   18.3578369   16.4559162
    H       16.7284762   18.6224171   15.3684299
    H       16.2031161   19.9037994   16.4625164
    H       17.4207112   20.2054362   18.1788455
    H       19.9486100   17.7186646   20.0718734
    H       19.4743131   16.0251500   18.3277688
    H       19.0117854   13.9596318   19.3169315
    H       17.8512171   12.5752015   21.0213605
    H       16.0847557   13.6007398   22.4578096
    H       14.9963031   15.4352651   22.9469783
    H       16.6582685   17.3821159   20.4972303
*
