! ri-mp2 cc-pvtz cc-pvtz/c TightSCF NoKeepInts

%scf
  MaxCore 4096
end
*xyz  0  1
    C       15.5853674   14.7175404   14.0538119
    C       15.2543049   14.6705459   15.5551888
    O       16.0028949   15.7219548   16.1944480
    C       16.9935817   15.4298249   17.0882421
    O       17.3379419   14.2857752   17.3368114
    C       17.6185112   16.6220470   17.7593336
    C       17.4081811   17.9220439   17.4186649
    C       16.5217793   18.4757442   16.3212986
    N       18.1076022   18.9351805   18.0838031
    C       19.1278684   18.7308552   18.9744753
    S       19.9948995   19.9873067   19.6110925
    N       19.3918873   17.4279004   19.3104066
    C       18.5632936   16.2735272   18.9162295
    C       17.7888223   15.7373620   20.1177067
    C       17.8885591   14.3817365   20.4817561
    C       17.1774485   13.8816927   21.5854837
    C       16.3583225   14.7441669   22.3336299
    C       16.2531050   16.0942044   21.9725727
    O       15.4583530   16.9283745   22.6894794
    C       16.9617530   16.5888827   20.8731910
    H       15.3432828   15.7012090   13.6328061
    H       15.0098408   13.9589339   13.5095083
    H       16.6522475   14.5211076   13.8888086
    H       14.1805996   14.8499709   15.6952379
    H       15.4862980   13.6774873   15.9632276
    H       16.7883781   18.0411191   15.3498239
    H       16.6006428   19.5648750   16.2199068
    H       15.4682556   18.2423901   16.5198892
    H       17.9285245   19.8987666   17.8508872
    H       20.1272773   17.3044368   19.9943931
    H       19.2437150   15.4836415   18.5664254
    H       18.5080076   13.7086159   19.8939771
    H       17.2585198   12.8295213   21.8521856
    H       15.8058335   14.3617059   23.1853029
    H       15.0826395   16.4136519   23.4192809
    H       16.8684608   17.6379012   20.6147137
*
