! ri-mp2 cc-pvtz cc-pvtz/c TightSCF NoKeepInts

%scf
  MaxCore 4096
end
*xyz  0  1
    C       15.1457259   15.4973605   17.4545107
    C       15.5254485   15.3429886   15.9663250
    O       16.9469333   15.2042394   15.7067842
    C       18.0263099   15.5735774   16.4761146
    O       18.9963639   14.8396335   16.5267724
    C       17.9226304   16.7676316   17.3774147
    C       17.3847306   17.9525010   16.9939405
    C       16.8201016   18.3223108   15.6388937
    N       17.4203956   19.0472621   17.8613891
    C       18.1234146   19.0904781   19.0361388
    S       18.2019282   20.4646619   19.9523777
    N       18.7616696   17.9352375   19.4112568
    C       18.6207932   16.6300225   18.7360908
    C       17.9085708   15.6195305   19.6323336
    C       18.3458622   14.2825843   19.6716734
    C       17.6920643   13.3367181   20.4785382
    C       16.5893190   13.7290463   21.2556625
    C       16.1487274   15.0586111   21.2200150
    O       15.0773538   15.4385887   21.9605015
    C       16.8013241   15.9983611   20.4158001
    H       15.6845826   14.7663224   18.0697599
    H       14.0740402   15.3034159   17.5841768
    H       15.3315107   16.5047662   17.8383088
    H       15.0271305   14.4465127   15.5746683
    H       15.1213147   16.1919014   15.4032917
    H       17.1178345   17.6137776   14.8568798
    H       17.1882760   19.3043604   15.3152866
    H       15.7253247   18.3712206   15.6660964
    H       16.9743820   19.9108081   17.5945821
    H       19.2612669   17.9892346   20.2899315
    H       19.6360197   16.2497046   18.5489158
    H       19.1915583   13.9717725   19.0615550
    H       18.0392542   12.3049467   20.4946432
    H       16.0801442   13.0007470   21.8781851
    H       14.7980399   14.6711731   22.4823133
    H       16.4366541   17.0199912   20.4028722
*
