! ri-mp2 cc-pvtz cc-pvtz/c TightSCF NoKeepInts

%scf
  MaxCore 4096
end
*xyz  0  1
    C       15.1607025   13.9474166   16.7021548
    C       15.3893882   15.4690166   16.6726670
    O       16.5463308   15.7396858   15.8592193
    C       17.7629493   15.7539774   16.4747410
    O       18.4051946   14.7266886   16.6012302
    C       17.9726358   16.9392312   17.3679070
    C       17.5212484   18.1860288   17.0844167
    C       16.7863768   18.6344467   15.8386639
    N       17.7946631   19.2394842   17.9617189
    C       18.6148412   19.1516285   19.0563010
    S       18.9703065   20.4728947   19.9848950
    N       19.1226529   17.9092792   19.3451349
    C       18.7418488   16.6585525   18.6606760
    C       17.9174217   15.7634069   19.5824976
    C       18.2579049   14.4086920   19.7505370
    C       17.4858250   13.5720853   20.5735974
    C       16.3609185   14.0931058   21.2349639
    C       16.0156731   15.4407435   21.0676984
    O       14.9226357   15.9445650   21.6937748
    C       16.7857555   16.2710405   20.2473349
    H       15.9974196   13.4392852   17.1988960
    H       15.0704787   13.5484875   15.6841414
    H       14.2425359   13.7059410   17.2508699
    H       14.5107282   15.9466956   16.2207344
    H       15.5053998   15.8607687   17.6920729
    H       17.1779583   18.1300669   14.9460570
    H       16.8877953   19.7123902   15.6619664
    H       15.7164614   18.4056523   15.9116056
    H       17.4354156   20.1603013   17.7650062
    H       19.7035301   17.8680366   20.1729651
    H       19.6666546   16.1257152   18.3949367
    H       19.1148226   13.9972152   19.2218796
    H       17.7572485   12.5241173   20.6889665
    H       15.7601100   13.4491897   21.8687012
    H       14.5652909   15.2450162   22.2616184
    H       16.4998770   17.3111509   20.1334531
*
