! ri-mp2 cc-pvtz cc-pvtz/c TightSCF NoKeepInts

%scf
  MaxCore 4096
end
*xyz  0  1
    C       14.8934342   14.1051749   15.9559834
    C       16.4257657   13.9310929   16.0531256
    O       17.1109352   15.0410545   16.6835768
    C       16.7352984   16.3590433   16.6185904
    O       15.9381087   16.7897808   15.8042712
    C       17.5675434   17.2267055   17.5238604
    C       17.4971337   18.5825690   17.5055596
    C       16.6222911   19.4458126   16.6215479
    N       18.3125257   19.3393088   18.3524827
    C       19.2758130   18.8269327   19.1794476
    S       20.2529990   19.8000363   20.0927945
    N       19.3902606   17.4609273   19.2128905
    C       18.4961856   16.5142792   18.5215065
    C       17.7090863   15.7035549   19.5470827
    C       17.9333514   14.3212161   19.6888795
    C       17.2067941   13.5718687   20.6295367
    C       16.2499471   14.2100158   21.4371328
    C       16.0271843   15.5871902   21.3014945
    O       15.1047137   16.2063358   22.0804095
    C       16.7517267   16.3302532   20.3644890
    H       14.4801817   14.4805728   16.9005824
    H       14.4176279   13.1416316   15.7378760
    H       14.6160560   14.7940164   15.1488361
    H       16.6496571   13.0171077   16.6180050
    H       16.8207700   13.7945082   15.0380179
    H       16.8425113   19.2605470   15.5624884
    H       16.7529642   20.5188345   16.8039217
    H       15.5623164   19.2100243   16.7810705
    H       18.2431263   20.3443061   18.3410558
    H       20.0823425   17.1112498   19.8629155
    H       19.1348570   15.8265313   17.9497225
    H       18.6691716   13.8247918   19.0620614
    H       17.3858420   12.5028941   20.7305292
    H       15.6863928   13.6357481   22.1650611
    H       14.7325687   15.5398581   22.6771393
    H       16.5695167   17.3962257   20.2800553
*
