! ri-mp2 cc-pvtz cc-pvtz/c TightSCF NoKeepInts

%scf
  MaxCore 4096
end
*xyz  0  1
    C       15.0976138   15.1620706   16.8774438
    C       16.3211969   14.2161011   16.8238155
    O       17.5455249   14.8518185   16.3710358
    C       17.6190300   16.1835496   16.0769238
    O       17.2527785   16.5792885   14.9850218
    C       17.7816480   17.0731730   17.2808370
    C       17.3793645   18.3698361   17.2832625
    C       16.6021403   19.0927242   16.2043757
    N       17.7200875   19.2045494   18.3520430
    C       18.6391476   18.8891179   19.3178275
    S       19.1425476   19.9917559   20.4429689
    N       19.1328023   17.6089875   19.2933517
    C       18.5797702   16.5152747   18.4735068
    C       17.7858727   15.5809545   19.3795259
    C       18.2762333   14.2940633   19.6727871
    C       17.5586505   13.4310906   20.5182073
    C       16.3454832   13.8607550   21.0825089
    C       15.8640815   15.1479914   20.8081385
    O       14.6951575   15.5679543   21.3534147
    C       16.5812290   16.0050949   19.9681532
    H       15.2480069   15.9913045   17.5761700
    H       14.2115683   14.6082612   17.2105330
    H       14.8766219   15.5740713   15.8844535
    H       16.4745016   13.7729643   17.8140232
    H       16.0888570   13.3889360   16.1407176
    H       15.7213304   18.5109837   15.9045655
    H       17.2232211   19.2283649   15.3094879
    H       16.2495990   20.0813301   16.5208084
    H       17.3823835   20.1537581   18.3695297
    H       19.7922782   17.3983447   20.0314477
    H       19.4271273   15.9494174   18.0610920
    H       19.2137628   13.9578255   19.2373712
    H       17.9437722   12.4359111   20.7350667
    H       15.7876422   13.1976580   21.7358510
    H       14.3876503   14.8743256   21.9565728
    H       16.1983175   17.0023924   19.7811603
*
