! ri-mp2 cc-pvtz cc-pvtz/c TightSCF NoKeepInts

%scf
  MaxCore 4096
end
*xyz  0  1
    C       14.7978560   14.6164150   16.1614116
    C       15.9931566   14.7017780   17.1261195
    O       17.1645878   14.9858934   16.3369872
    C       17.5545259   16.2768416   16.1196104
    O       17.4866552   16.7412706   14.9967976
    C       17.7449396   17.1233704   17.3474032
    C       17.3645040   18.4242067   17.3762147
    C       16.5538807   19.1566241   16.3295492
    N       17.7600467   19.2450031   18.4359553
    C       18.7196319   18.9092154   19.3547384
    S       19.2806083   19.9922626   20.4712810
    N       19.1988013   17.6238811   19.2953050
    C       18.6051113   16.5424568   18.4856609
    C       17.8748758   15.5755179   19.4111803
    C       18.2556941   14.2212695   19.4654816
    C       17.5873951   13.3242697   20.3155935
    C       16.5341608   13.7852675   21.1235726
    C       16.1599992   15.1350921   21.0818240
    O       15.1423816   15.5833391   21.8585065
    C       16.8254874   16.0255638   20.2336137
    H       14.6446667   15.5727145   15.6454294
    H       13.8790469   14.3686006   16.7065149
    H       14.9683381   13.8410174   15.4039355
    H       15.7925901   15.4753643   17.8750340
    H       16.1128435   13.7377160   17.6371326
    H       15.7290682   18.5317776   15.9646606
    H       17.1820471   19.4032681   15.4635476
    H       16.1166614   20.0882099   16.7075831
    H       17.4372131   20.1988982   18.4749243
    H       19.8922777   17.4007004   19.9980577
    H       19.4339037   15.9946645   18.0149027
    H       19.0673951   13.8591313   18.8392994
    H       17.8872657   12.2778343   20.3474821
    H       16.0155892   13.0956787   21.7819679
    H       14.8597053   14.8490873   22.4247307
    H       16.5240890   17.0677984   20.2219913
*
