! ri-mp2 cc-pvtz cc-pvtz/c TightSCF NoKeepInts

%scf
  MaxCore 4096
end
*xyz  0  1
    C       14.9669239   14.3292937   17.2051488
    C       15.4703487   15.6681264   16.6405670
    O       16.7101989   15.4016397   15.9517136
    C       17.9308444   15.6661671   16.5156105
    O       18.8020244   14.8159449   16.5208637
    C       18.0259362   16.8925423   17.3684552
    C       17.5487286   18.1030658   16.9917675
    C       16.8999341   18.4596743   15.6710941
    N       17.7024895   19.2042068   17.8375175
    C       18.4044965   19.1923457   19.0148282
    S       18.5911675   20.5583259   19.9275850
    N       18.9391740   17.9880410   19.4019745
    C       18.7307012   16.7006392   18.7103186
    C       17.9376289   15.7293349   19.5793035
    C       18.3731594   14.4012290   19.7385673
    C       17.6283971   13.4905081   20.5063032
    C       16.4341381   13.9090875   21.1171321
    C       15.9931236   15.2291888   20.9551735
    O       14.8320697   15.6328746   21.5290548
    C       16.7371470   16.1341399   20.1917114
    H       15.6832433   13.9236026   17.9313323
    H       14.8375118   13.5934398   16.4016241
    H       14.0035209   14.4609411   17.7122953
    H       14.7308069   16.0493550   15.9247577
    H       15.5694802   16.3972164   17.4532744
    H       17.1738514   17.7525307   14.8780113
    H       17.2169642   19.4516340   15.3249878
    H       15.8068332   18.4670711   15.7557577
    H       17.3269127   20.0998717   17.5675819
    H       19.4312501   18.0043552   20.2864502
    H       19.7193192   16.2609583   18.5114844
    H       19.2843205   14.0680098   19.2463040
    H       17.9740043   12.4639618   20.6165564
    H       15.8537218   13.2069255   21.7065286
    H       14.5004127   14.8948516   22.0629261
    H       16.3762150   17.1508999   20.0794374
*
