! ri-mp2 cc-pvtz cc-pvtz/c TightSCF NoKeepInts

%scf
  MaxCore 4096
end
*xyz  0  1
    C       14.5173320   14.6049647   15.3455121
    C       15.6915507   14.4356256   16.3238856
    O       16.6086096   15.5153758   16.0870130
    C       17.7807411   15.5225917   16.7836367
    O       18.3359515   14.4835598   17.1011490
    C       17.9931866   16.7942985   17.5503961
    C       17.5411394   18.0111826   17.1524304
    C       16.7824534   18.3475614   15.8851578
    N       17.8360203   19.1453920   17.9155536
    C       18.6855850   19.1664175   18.9903156
    S       19.0757844   20.5745752   19.7651292
    N       19.1967969   17.9574657   19.3902397
    C       18.7820837   16.6465907   18.8555482
    C       17.9720726   15.8773811   19.8959435
    C       18.3629362   14.5845269   20.2905189
    C       17.6164044   13.8692473   21.2418236
    C       16.4675531   14.4507649   21.8045120
    C       16.0723783   15.7365815   21.4114140
    O       14.9593086   16.2980102   21.9472380
    C       16.8170734   16.4457434   20.4638317
    H       14.8722544   14.5768341   14.3077200
    H       14.0085071   15.5622198   15.5131770
    H       13.7860046   13.7987160   15.4801048
    H       15.3317745   14.4595740   17.3614809
    H       16.1808509   13.4681770   16.1449538
    H       17.2227539   17.8392302   15.0182123
    H       16.7884087   19.4216142   15.6631411
    H       15.7356593   18.0288069   15.9651898
    H       17.4709941   20.0423522   17.6374477
    H       19.7961090   17.9970449   20.2046326
    H       19.6935671   16.0727814   18.6338438
    H       19.2410321   14.1253691   19.8428495
    H       17.9267074   12.8676253   21.5340226
    H       15.8872436   13.9011067   22.5380713
    H       14.6149077   15.6818323   22.6110298
    H       16.4952648   17.4408593   20.1768744
*
