! ri-mp2 cc-pvtz cc-pvtz/c TightSCF NoKeepInts

%scf
  MaxCore 4096
end
*xyz  0  1
    C       15.6379085   13.2786388   16.0419185
    C       15.6171058   14.5875424   16.8480088
    O       16.7943116   15.3325472   16.4856555
    C       16.6951578   16.6900145   16.3897184
    O       15.7927582   17.2083060   15.7555256
    C       17.5139298   17.4112032   17.4270186
    C       17.4615750   18.7589078   17.5856182
    C       16.6026041   19.7419177   16.8188798
    N       18.2952221   19.3884947   18.5149132
    C       19.2990914   18.7695693   19.2106035
    S       20.3258899   19.6085299   20.1993119
    N       19.4164702   17.4142685   19.0374173
    C       18.4578537   16.5688544   18.3033467
    C       17.7070569   15.6837250   19.2934206
    C       18.0108982   14.3125948   19.3903891
    C       17.3196690   13.4894360   20.2951771
    C       16.3202228   14.0423426   21.1138696
    C       16.0217942   15.4090243   21.0268533
    O       15.0586107   15.9461923   21.8168814
    C       16.7096774   16.2254172   20.1238659
    H       14.7555776   12.6699894   16.2737002
    H       16.5337078   12.6922257   16.2805602
    H       15.6369337   13.4896019   14.9650863
    H       14.7023439   15.1406188   16.5939099
    H       15.6044286   14.3793153   17.9252604
    H       15.5378056   19.5305218   16.9806098
    H       16.7914510   19.6614875   15.7407615
    H       16.7809387   20.7844164   17.1074073
    H       18.2270575   20.3847425   18.6491123
    H       20.1460110   16.9812137   19.5888600
    H       19.0381197   15.9196122   17.6324149
    H       18.7807478   13.8816596   18.7556143
    H       17.5603141   12.4296111   20.3610811
    H       15.7847167   13.4109388   21.8154277
    H       14.7401653   15.2464980   22.4069835
    H       16.4688738   17.2820206   20.0788177
*
