! ri-mp2 cc-pvtz cc-pvtz/c TightSCF NoKeepInts

%scf
  MaxCore 4096
end
*xyz  0  1
    C       14.6596925   14.1766618   16.5976359
    C       15.6396605   15.2199674   17.1576127
    O       16.8486159   15.1174942   16.3836431
    C       17.6822684   16.1870282   16.2050498
    O       18.0861430   16.4687079   15.0925844
    C       17.8195486   17.1323906   17.3557438
    C       17.4404146   18.4239572   17.2279971
    C       16.7096857   19.0226484   16.0467092
    N       17.7511779   19.3480729   18.2278572
    C       18.5847206   19.0928573   19.2851096
    S       18.9974062   20.2662167   20.3745462
    N       19.0633271   17.8101116   19.3964717
    C       18.6352039   16.6635704   18.5694577
    C       17.9300369   15.6241972   19.4317857
    C       18.2536685   14.2606720   19.2995554
    C       17.6046560   13.2923969   20.0836628
    C       16.6270655   13.6895424   21.0116475
    C       16.3051851   15.0462573   21.1505852
    O       15.3559838   15.4320862   22.0392820
    C       16.9497176   16.0085293   20.3665412
    H       13.7064357   14.2128040   17.1387197
    H       15.0744723   13.1659201   16.6988459
    H       14.4608058   14.3636640   15.5348160
    H       15.1946261   16.2186750   17.0562520
    H       15.8137568   15.0129227   18.2160150
    H       15.9280759   18.3464601   15.6792653
    H       17.4075981   19.1927268   15.2160464
    H       16.2311593   19.9791574   16.2882905
    H       17.4322341   20.3005956   18.1459060
    H       19.6621382   17.6516309   20.1972731
    H       19.5488941   16.1957604   18.1751889
    H       19.0037556   13.9473417   18.5773625
    H       17.8595254   12.2398173   19.9696756
    H       16.1233971   12.9441498   21.6187205
    H       15.0737245   14.6438624   22.5278471
    H       16.6822227   17.0531459   20.4902974
*
