! ri-mp2 cc-pvtz cc-pvtz/c TightSCF NoKeepInts

%scf
  MaxCore 4096
end
*xyz  0  1
    C       15.2785995   14.4502407   17.1568404
    C       15.5572769   14.9582497   15.7228088
    O       16.5644725   15.9936635   15.7024376
    C       17.6935790   15.8947538   16.4627786
    O       18.2990905   14.8414822   16.5733109
    C       17.8843788   17.0347842   17.4195878
    C       17.3910721   18.2867961   17.2375395
    C       16.5979355   18.8097986   16.0578038
    N       17.6658662   19.2847381   18.1781178
    C       18.5250902   19.1490512   19.2365949
    S       18.8822384   20.4168966   20.2368323
    N       19.0735488   17.9055522   19.4242080
    C       18.6944078   16.6932483   18.6743846
    C       17.9207352   15.7294686   19.5701591
    C       18.3513952   14.3990147   19.7258655
    C       17.6312147   13.5025941   20.5330191
    C       16.4687370   13.9390511   21.1907838
    C       16.0349600   15.2626236   21.0364746
    O       14.9072553   15.6845978   21.6619164
    C       16.7541694   16.1527275   20.2329889
    H       16.1264176   13.8829614   17.5606795
    H       14.4083127   13.7832403   17.1591657
    H       15.0648207   15.2867275   17.8336929
    H       15.8936600   14.1115085   15.1096623
    H       14.6306360   15.3458174   15.2806126
    H       15.5701735   18.4268692   16.0822211
    H       17.0529118   18.4945397   15.1104074
    H       16.5445349   19.9050906   16.0376509
    H       17.2738598   20.2049939   18.0575571
    H       19.6798812   17.8244852   20.2302864
    H       19.6208978   16.1969644   18.3509596
    H       19.2383123   14.0532429   19.2003434
    H       17.9715127   12.4740741   20.6391869
    H       15.9077594   13.2490348   21.8122026
    H       14.5859705   14.9502311   22.2064172
    H       16.4013163   17.1728865   20.1285018
*
