! ri-mp2 cc-pvtz cc-pvtz/c TightSCF NoKeepInts

%scf
  MaxCore 4096
end
*xyz  0  1
    C       14.2430957   15.1457200   16.1348773
    C       15.5597986   15.2498211   16.9219835
    O       16.6023523   15.5635368   15.9811647
    C       17.8537528   15.7952535   16.4724142
    O       18.6852379   14.9058330   16.4659561
    C       17.9363862   16.9496915   17.4238388
    C       17.2906387   18.1252767   17.2289821
    C       16.4321468   18.5115965   16.0432532
    N       17.4486037   19.1653772   18.1489448
    C       18.3258163   19.1490827   19.2020638
    S       18.5231858   20.4608504   20.1892111
    N       19.0289099   17.9861355   19.3987694
    C       18.8131068   16.7284024   18.6571665
    C       18.1919942   15.6647442   19.5582257
    C       18.7509452   14.3756307   19.6272962
    C       18.1671408   13.3837577   20.4328651
    C       17.0116620   13.6813572   21.1750421
    C       16.4483538   14.9623967   21.1049672
    O       15.3245799   15.2499631   21.8084293
    C       17.0313110   15.9476080   20.3019297
    H       13.4115809   14.9007585   16.8069132
    H       14.3119372   14.3581224   15.3738610
    H       14.0123756   16.0925206   15.6318408
    H       15.4633076   16.0283404   17.6897007
    H       15.7776756   14.2959063   17.4219886
    H       15.3914626   18.2022075   16.1953611
    H       16.7913646   18.0404058   15.1195395
    H       16.4389328   19.5943347   15.8664157
    H       16.9462946   20.0294468   18.0187880
    H       19.6502189   17.9936552   20.1978008
    H       19.7936970   16.3659925   18.3150571
    H       19.6322436   14.1360499   19.0363875
    H       18.6069056   12.3885671   20.4723405
    H       16.5559991   12.9166623   21.7954841
    H       15.1148163   14.4740964   22.3503816
    H       16.5791697   16.9328986   20.2647590
*
