! ri-mp2 cc-pvtz cc-pvtz/c TightSCF NoKeepInts

%scf
  MaxCore 4096
end
*xyz  0  1
    C       14.9173745   14.4232966   16.3761962
    C       16.3538979   14.0519775   16.8031217
    O       17.3538606   15.0444207   16.4541582
    C       17.0733840   16.3757545   16.3020659
    O       16.3450033   16.7828720   15.4142431
    C       17.6696429   17.2425374   17.3790089
    C       17.4623968   18.5840247   17.4275756
    C       16.6147380   19.4186143   16.4910934
    N       18.0937479   19.3567012   18.4068788
    C       19.0449574   18.8936842   19.2757633
    S       19.8368372   19.8975910   20.3250643
    N       19.3167512   17.5507604   19.2241588
    C       18.5593118   16.5631871   18.4348604
    C       17.7760946   15.6627100   19.3843664
    C       18.2895899   14.4019537   19.7430259
    C       17.5767925   13.5610434   20.6141978
    C       16.3428994   13.9858893   21.1355442
    C       15.8344029   15.2455059   20.7904844
    O       14.6450076   15.6600307   21.2942594
    C       16.5454665   16.0802657   19.9230207
    H       14.5698377   15.3279295   16.8908319
    H       14.2253150   13.6105758   16.6270739
    H       14.8617722   14.5897900   15.2928191
    H       16.3511798   13.9035658   17.8891822
    H       16.6313496   13.0927484   16.3477737
    H       15.5776460   19.0595977   16.4854753
    H       16.9910223   19.3455588   15.4625998
    H       16.5945291   20.4809141   16.7610864
    H       17.9123530   20.3467131   18.4523018
    H       20.0008332   17.2344831   19.8991857
    H       19.2896653   15.9419923   17.8970623
    H       19.2434156   14.0706788   19.3406232
    H       17.9817307   12.5871723   20.8848840
    H       15.7893073   13.3405441   21.8099252
    H       14.3373534   14.9817188   21.9144237
    H       16.1375327   17.0551969   19.6796642
*
