! ri-mp2 cc-pvtz cc-pvtz/c TightSCF NoKeepInts

%scf
  MaxCore 4096
end
*xyz  0  1
    C       14.7684953   15.7268417   16.5951986
    C       15.8050750   14.7117802   17.1145873
    O       17.0349376   14.8142049   16.3648711
    C       17.8329972   15.9256132   16.2652013
    O       18.4716285   16.1333342   15.2508599
    C       17.7898799   16.9324961   17.3687790
    C       17.3776266   18.1966393   17.1169327
    C       16.7706036   18.7089015   15.8284791
    N       17.5489394   19.1968226   18.0756340
    C       18.2827617   19.0535003   19.2231344
    S       18.5222830   20.3111781   20.2695949
    N       18.8163559   17.8109881   19.4604559
    C       18.5494029   16.5970795   18.6625622
    C       17.8912140   15.5303790   19.5280402
    C       18.3308680   14.1950794   19.4563425
    C       17.7272540   13.2002514   20.2434208
    C       16.6778216   13.5424896   21.1130104
    C       16.2397737   14.8712810   21.1914597
    O       15.2217076   15.2032902   22.0239207
    C       16.8398788   15.8598801   20.4049727
    H       14.9804864   16.7371016   16.9595512
    H       13.7664535   15.4551789   16.9492007
    H       14.7485544   15.7388281   15.4979650
    H       15.9491459   14.8476948   18.1860701
    H       15.4035555   13.7001724   16.9721359
    H       16.3514216   17.8996902   15.2184542
    H       17.5374962   19.2026572   15.2179624
    H       15.9640640   19.4281384   16.0146726
    H       17.1945110   20.1236874   17.8991755
    H       19.3414779   17.7349363   20.3226469
    H       19.5277198   16.2006961   18.3540003
    H       19.1381459   13.9241638   18.7798530
    H       18.0734490   12.1698035   20.1777360
    H       16.2092822   12.7765977   21.7227370
    H       14.9809606   14.4090963   22.5248111
    H       16.4807716   16.8815273   20.4795708
*
