! ri-mp2 cc-pvtz cc-pvtz/c TightSCF NoKeepInts

%scf
  MaxCore 4096
end
*xyz  0  1
    C       14.8430851   14.8656687   17.0287692
    C       15.7665518   14.7492902   15.8022622
    O       16.6046614   15.9183501   15.7646956
    C       17.7915355   15.9017422   16.4384844
    O       18.4508983   14.8808910   16.5466974
    C       17.9138397   17.0256976   17.4242744
    C       17.3565364   18.2522839   17.2574598
    C       16.5503152   18.7488339   16.0752209
    N       17.5738551   19.2495328   18.2135942
    C       18.4453883   19.1472473   19.2660537
    S       18.7407761   20.4202403   20.2797933
    N       19.0601306   17.9321256   19.4356776
    C       18.7317158   16.7082637   18.6800267
    C       17.9901561   15.7113435   19.5672650
    C       18.4454386   14.3850893   19.6836868
    C       17.7575152   13.4587079   20.4851477
    C       16.6024291   13.8604692   21.1771243
    C       16.1432672   15.1793829   21.0615320
    O       15.0222412   15.5678927   21.7198007
    C       16.8299393   16.0990366   20.2628098
    H       15.4271800   14.8325126   17.9570590
    H       14.1270667   14.0353049   17.0501004
    H       14.2791553   15.8062372   17.0059574
    H       16.3532542   13.8210019   15.8386033
    H       15.1473076   14.7222055   14.8965630
    H       15.5338866   18.3365856   16.1003015
    H       17.0136666   18.4429487   15.1288997
    H       16.4668859   19.8421808   16.0518292
    H       17.1318913   20.1485182   18.1059288
    H       19.6752998   17.8739697   20.2370133
    H       19.6781799   16.2492765   18.3593957
    H       19.3275093   14.0665849   19.1332059
    H       18.1174312   12.4342117   20.5612946
    H       16.0667148   13.1474646   21.7948938
    H       14.7248412   14.8164414   22.2544132
    H       16.4564535   17.1144664   20.1881659
*
