! ri-mp2 cc-pvtz cc-pvtz/c TightSCF NoKeepInts

%scf
  MaxCore 4096
end
*xyz  0  1
    C       14.7703128   16.1232885   16.9029306
    C       15.6446509   14.8693931   17.0937386
    O       16.8610301   14.8940304   16.3117258
    C       17.9106731   15.7792533   16.3799836
    O       18.9685338   15.5070924   15.8454263
    C       17.8467228   16.8808270   17.3796624
    C       17.3940680   18.1068494   17.0332816
    C       16.8259900   18.5183760   15.6921141
    N       17.4854397   19.1666619   17.9372989
    C       18.1262094   19.1039631   19.1471042
    S       18.2260242   20.4164954   20.1478103
    N       18.6817516   17.8953862   19.4895685
    C       18.5708678   16.6474134   18.7070633
    C       17.9327653   15.5302845   19.5242393
    C       18.4094068   14.2122379   19.3991627
    C       17.8216879   13.1661970   20.1296132
    C       16.7476766   13.4390107   20.9936865
    C       16.2681017   14.7496100   21.1201114
    O       15.2230382   15.0140752   21.9433472
    C       16.8524662   15.7892702   20.3894811
    H       15.0912589   16.9426901   17.5536154
    H       13.7323476   15.8935984   17.1735181
    H       14.7759404   16.4532934   15.8573265
    H       15.8609226   14.7189202   18.1558663
    H       15.0615540   13.9985853   16.7672022
    H       16.7848543   17.6854717   14.9796901
    H       17.4476163   19.2974967   15.2327524
    H       15.8083967   18.9140159   15.7971339
    H       17.1075939   20.0683489   17.6918307
    H       19.1372398   17.8772279   20.3934507
    H       19.5939323   16.3276113   18.4586637
    H       19.2331854   13.9959187   18.7218415
    H       18.1982036   12.1500492   20.0220986
    H       16.2908296   12.6332134   21.5591034
    H       14.9983486   14.1915859   22.4045488
    H       16.4573592   16.7942574   20.4980082
*
