! ri-mp2 cc-pvtz cc-pvtz/c TightSCF NoKeepInts

%scf
  MaxCore 4096
end
*xyz  0  1
    C       14.5129275   14.5201621   16.2782168
    C       15.6139832   15.3841379   16.9134824
    O       16.8130182   15.1819462   16.1411762
    C       18.0327050   15.5617349   16.6336124
    O       18.9489665   14.7620623   16.6839770
    C       18.0471459   16.8254601   17.4348731
    C       17.5170765   17.9903507   16.9905893
    C       16.8808250   18.2549927   15.6416315
    N       17.6144643   19.1416596   17.7755457
    C       18.3260665   19.2315324   18.9436878
    S       18.4562492   20.6555517   19.7737279
    N       18.9223810   18.0785951   19.3923300
    C       18.7579232   16.7428294   18.7853133
    C       18.0051383   15.7996877   19.7188566
    C       18.4603652   14.4826899   19.9118367
    C       17.7570113   13.5962375   20.7441778
    C       16.5851278   14.0282431   21.3879734
    C       16.1242404   15.3370588   21.1935262
    O       14.9848088   15.7533351   21.8006949
    C       16.8256941   16.2172529   20.3634933
    H       14.8083447   13.4632357   16.2727027
    H       14.3246344   14.8314310   15.2432293
    H       13.5767308   14.6118242   16.8421885
    H       15.3041288   16.4348229   16.9262106
    H       15.7718283   15.0513808   17.9485340
    H       17.0841875   17.4530242   14.9214605
    H       17.2736629   19.1777768   15.1959948
    H       15.7929224   18.3618340   15.7280127
    H       17.1962342   20.0017799   17.4569097
    H       19.4236020   18.1701150   20.2670654
    H       19.7618326   16.3274844   18.6120128
    H       19.3558865   14.1389966   19.3981478
    H       18.1180963   12.5781562   20.8806745
    H       16.0374692   13.3450733   22.0288755
    H       14.6829918   15.0343762   22.3766502
    H       16.4483297   17.2251687   20.2266088
*
