! ri-mp2 cc-pvtz cc-pvtz/c TightSCF NoKeepInts

%scf
  MaxCore 4096
end
*xyz  0  1
    C       14.4602600   14.9101744   14.8973014
    C       15.5152498   14.4846643   15.9321517
    O       16.4287730   15.5817229   16.0915466
    C       17.5172696   15.4121830   16.8960118
    O       17.9242189   14.3035325   17.2037162
    C       17.9388713   16.6529356   17.6300107
    C       17.6414503   17.9223169   17.2463342
    C       16.8607229   18.3702888   16.0275125
    N       18.1419427   19.0039409   17.9788029
    C       19.0565095   18.9070022   18.9941030
    S       19.6974598   20.2472051   19.7211894
    N       19.4135271   17.6386657   19.3754647
    C       18.7720119   16.4016367   18.8921002
    C       17.9220560   15.7756887   19.9949735
    C       18.1330663   14.4405068   20.3860014
    C       17.3520112   13.8581439   21.3983010
    C       16.3498850   14.6167900   22.0266291
    C       16.1337430   15.9457562   21.6377897
    O       15.1626590   16.6790976   22.2382791
    C       16.9124080   16.5224530   20.6295389
    H       13.9141261   15.7964346   15.2433421
    H       13.7361856   14.1028852   14.7328890
    H       14.9344972   15.1469715   13.9367237
    H       15.0355562   14.2436447   16.8903866
    H       16.0451357   13.5923562   15.5711577
    H       17.2245187   17.8656438   15.1237556
    H       16.9406079   19.4489869   15.8463386
    H       15.7957830   18.1319962   16.1413773
    H       17.8920619   19.9432340   17.7137442
    H       20.0654360   17.5937419   20.1480747
    H       19.5715456   15.6935464   18.6302677
    H       18.8959986   13.8461437   19.8891060
    H       17.5216676   12.8224222   21.6869340
    H       15.7432540   14.1704114   22.8074301
    H       14.7659907   16.1252011   22.9271984
    H       16.7305401   17.5536748   20.3475165
*
