! HF STO-3G TightSCF KeepDens NoKeepInts

*xyz  0  1
    C    16.6436530   -9.5814510   -0.8365118
    C    17.4758984  -10.6222675   -0.0929322
    O    16.6230464  -11.4814942    0.6261052
    C    16.0235215  -11.1081774    1.7359824
    O    16.0080225   -9.9179330    2.1587631
    C    15.1629785  -12.1100163    2.4234731
    C    14.8396632  -13.3770832    2.0289793
    C    15.3942554  -13.9991510    0.7373316
    N    14.0416277  -14.0984269    2.7729633
    C    13.3706618  -13.6791237    3.8655599
    S    11.9673991  -14.6298022    4.6003871
    N    13.5500932  -12.3810264    4.2387398
    C    14.5684976  -11.5837140    3.7169858
    C    15.5363876  -11.4725871    4.8974084
    C    15.4238979  -10.4746017    5.8566432
    C    16.3137428  -10.4711488    6.9324918
    C    17.3508831  -11.3665971    7.0609350
    C    17.4559063  -12.3377865    6.1165616
    O    18.5724354  -13.1597544    6.1859331
    C    16.5727175  -12.4241340    5.0615384
    H    16.7779524   -9.7128833   -1.9101891
    H    17.1169084   -8.6565469   -0.5068427
    H    15.5664683   -9.5907953   -0.6701014
    H    17.9977813  -11.1367423   -0.8998115
    H    18.2065573  -10.3365196    0.6637618
    H    15.1259190  -13.3586426   -0.1028140
    H    14.9454960  -14.9909346    0.6818010
    H    16.4796720  -13.9670685    0.8318941
    H    13.7286914  -14.9776011    2.3866687
    H    13.0427310  -12.1220702    5.0727813
    H    14.1555359  -10.5889704    3.5495106
    H    14.7642980   -9.6261542    5.7495687
    H    16.3759228   -9.6613045    7.6443106
    H    18.0813445  -11.1660145    7.8307355
    H    19.1877427  -12.9008447    6.8758338
    H    16.6702854  -13.2407911    4.3615667
*
