! RI-MP2 cc-pVTZ cc-pVTZ/c TightSCF KeepDens NoKeepInts

*xyz  0  1
    C     9.2091587    4.0408525    0.1496634
    C     9.6078092    5.4855186    0.3568188
    O    10.7433056    5.6308083    1.2798804
    C    11.0157443    6.7873189    1.8520218
    O    10.2908354    7.7151726    1.6009806
    C    12.3457514    6.8421211    2.5977948
    C    12.8901512    7.9912808    3.0955204
    C    12.2869750    9.3942470    2.9844356
    N    14.1606702    8.0329552    3.7004816
    C    15.0073473    6.9175852    3.7264332
    S    16.5541110    7.0026163    4.2701376
    N    14.4061968    5.7247128    3.2904060
    C    13.0430771    5.5240329    2.8093821
    C    12.2128366    4.6174681    3.8075355
    C    11.8762776    3.2386203    3.5172925
    C    11.1462390    2.5215881    4.4518937
    C    10.8161108    3.0660914    5.7048928
    C    11.1064016    4.4118998    6.0113998
    O    10.9717431    4.8215112    7.2619749
    C    11.8224651    5.1847481    5.0511993
    H     8.3911334    4.0372236   -0.5810940
    H     8.8528597    3.4454326    0.9992022
    H    10.0595079    3.4753441   -0.2507067
    H     9.8489642    5.9009913   -0.6292931
    H     8.7250025    5.9935456    0.7639432
    H    11.1912466    9.4419312    3.0016855
    H    12.5662193    9.9064556    2.0555359
    H    12.6308685   10.0830152    3.7658039
    H    14.6359414    8.8959626    3.9356455
    H    14.9667638    4.8849017    3.2100592
    H    13.0890248    4.9290624    1.8890070
    H    12.1531678    2.7752486    2.5749472
    H    10.8860547    1.5154944    4.1364922
    H    10.3878421    2.4070671    6.4543439
    H    11.0787944    5.7876994    7.3038159
    H    12.1786228    6.1930051    5.2408452
*
