! RI-MP2 cc-pVTZ cc-pVTZ/c TightSCF KeepDens NoKeepInts

*xyz  0  1
    C    -2.5604436  -14.2603910    2.9020460
    C    -3.3490483  -15.0720623    1.8759676
    O    -3.2099499  -16.4861144    2.3393868
    C    -2.0341511  -17.1414764    1.9282720
    O    -1.2813246  -16.5899319    1.1865543
    C    -1.8670277  -18.4585828    2.4874984
    C    -2.4304629  -18.8658145    3.6097659
    C    -3.0778654  -18.0253283    4.6555775
    N    -2.2305389  -20.1095641    4.0401423
    C    -1.2847037  -20.9681592    3.5581526
    S    -1.0528848  -22.4795503    4.3468016
    N    -0.7068725  -20.5933799    2.4139966
    C    -0.9969604  -19.3765958    1.6501368
    C    -1.7084489  -19.7658398    0.2619435
    C    -0.9546948  -20.2637795   -0.8339486
    C    -1.5430059  -20.5931779   -2.0845648
    C    -2.9652964  -20.4647327   -2.1383619
    C    -3.7361188  -20.0347142   -1.0756903
    O    -5.1354571  -20.0244608   -1.1795787
    C    -3.0869865  -19.6830345    0.1168572
    H    -1.4854521  -14.4727991    2.8523809
    H    -2.9424563  -14.3238456    3.9283157
    H    -2.7189415  -13.1904024    2.7198320
    H    -4.4141589  -14.8106007    1.8951378
    H    -2.9758815  -14.8745267    0.8635863
    H    -4.1590415  -17.9212018    4.5025824
    H    -2.6431698  -17.0185075    4.6788382
    H    -2.9873047  -18.4425161    5.6659962
    H    -2.8185681  -20.3672735    4.8235817
    H    -0.0590570  -21.2883886    2.0629048
    H    -0.0618943  -18.9011053    1.3295908
    H     0.1162481  -20.2855892   -0.6550326
    H    -0.9676433  -20.8956834   -2.9545328
    H    -3.5736500  -20.8085407   -2.9696902
    H    -5.4047249  -20.6206966   -1.8998056
    H    -3.7361438  -19.3853528    0.9350185
*
