! RI-MP2 cc-pVTZ cc-pVTZ/c TightSCF KeepDens NoKeepInts

*xyz  0  1
    C     5.0584983   11.0229878   -1.5949781
    C     4.4421379   10.4957070   -2.9141396
    O     5.4456154    9.8380737   -3.7594919
    C     5.8476682    8.5579150   -3.4694392
    O     5.2909370    7.8299668   -2.6167955
    C     6.8328820    8.0109278   -4.4468379
    C     7.3482008    8.6109807   -5.5221017
    C     7.1685778   10.0189342   -5.9335645
    N     8.0588030    7.8543115   -6.5022839
    C     8.1990851    6.5270858   -6.4212849
    S     8.8244354    5.7119505   -7.6519403
    N     7.6867342    5.9082076   -5.3245066
    C     7.0946811    6.5253820   -4.1791567
    C     8.0030937    6.3021195   -3.0215661
    C     8.0040414    5.0305810   -2.3866714
    C     8.8763101    4.7229015   -1.3740326
    C     9.8949650    5.6233615   -1.0619930
    C     9.9373676    6.8773393   -1.6636839
    O    11.0740619    7.5378355   -1.4275785
    C     9.0514615    7.1812981   -2.6806884
    H     6.1361027   11.1450735   -1.7594623
    H     4.8113683   10.4585153   -0.6875162
    H     4.6420782   12.0207006   -1.4096168
    H     3.6598451    9.7757271   -2.6442524
    H     3.9370329   11.2958282   -3.4689950
    H     7.1638542   10.6888470   -5.0650166
    H     6.4364434    9.9842937   -6.7496338
    H     8.1111370   10.3277613   -6.4019634
    H     8.3787507    8.2726746   -7.3674848
    H     7.7846750    4.9101189   -5.1823944
    H     6.1509772    6.0234116   -3.9329022
    H     7.2430910    4.2891108   -2.6115756
    H     8.8051909    3.7588808   -0.8790468
    H    10.5763682    5.2755164   -0.2912210
    H    11.2213750    8.2017263   -2.1234786
    H     9.1331012    8.1258532   -3.2103558
*
