! RI-MP2 cc-pVTZ cc-pVTZ/c TightSCF KeepDens NoKeepInts

*xyz  0  1
    C   -17.9869369    0.6258840   15.0682922
    C   -17.3851849    2.0357482   15.2910961
    O   -16.2975777    2.1004126   14.4707399
    C   -15.2971803    2.9418191   14.7143580
    O   -15.4360098    3.8960611   15.5282232
    C   -14.1479645    2.9559328   13.7515849
    C   -13.8382770    2.0263916   12.8740944
    C   -14.5474604    0.7307282   12.6243245
    N   -12.6538174    2.1188474   12.1881458
    C   -11.6972398    2.9594532   12.4774723
    S   -10.3202617    2.9756864   11.5435363
    N   -11.8767334    3.8047835   13.5124624
    C   -13.2158731    4.1714534   13.8852122
    C   -13.7056377    5.3944638   13.1180126
    C   -13.4422054    6.7057919   13.6583938
    C   -13.8196913    7.8464827   12.9796644
    C   -14.5261862    7.6795640   11.7336807
    C   -14.8060681    6.4066864   11.2505371
    O   -15.4594766    6.2383496   10.0686807
    C   -14.3118817    5.2572490   11.8562503
    H   -19.0547867    0.6387548   14.8178570
    H   -17.9656970    0.1057260   16.0337839
    H   -17.3927595    0.0789071   14.3260268
    H   -18.0868871    2.7877733   14.9099638
    H   -17.2019110    2.1965832   16.3605514
    H   -15.5837065    0.8651136   12.2906721
    H   -14.5843908    0.2447178   13.6069840
    H   -14.0582024    0.0330149   11.9336702
    H   -12.6926307    1.4994562   11.3876369
    H   -11.0797173    4.3623023   13.7951363
    H   -13.1334490    4.4859212   14.9328316
    H   -13.1014329    6.8599895   14.6779492
    H   -13.5848250    8.8023056   13.4386156
    H   -14.8117722    8.5433854   11.1406805
    H   -15.4191293    5.2903710    9.8531861
    H   -14.4863394    4.2360729   11.5304285
*
