! RI-MP2 cc-pVTZ cc-pVTZ/c TightSCF KeepDens NoKeepInts

*xyz  0  1
    C     7.3612127    7.7953408    2.5701948
    C     8.1672947    8.8583672    3.3120743
    O     7.2778008    9.7460043    4.0232743
    C     6.8195382    9.4128769    5.2737712
    O     7.1190636    8.3981418    5.8368488
    C     6.0648748   10.4879479    6.0132194
    C     5.8798437   11.7376654    5.5738774
    C     6.3029363   12.3527345    4.2932089
    N     5.2458804   12.6530290    6.4089846
    C     4.8692944   12.3687709    7.6495876
    S     4.0929849   13.4265639    8.6330089
    N     5.3148395   11.1707699    8.1483641
    C     5.5387052    9.9941469    7.3107505
    C     4.2114130    9.2427202    7.0289098
    C     2.9973339    9.8835781    6.5747998
    C     1.8641287    9.1269046    6.1435365
    C     1.8947167    7.7305540    6.2803024
    C     3.0542279    7.0879165    6.8016465
    O     3.1525985    5.7405574    6.7642663
    C     4.1564852    7.8642855    7.2056055
    H     6.5079969    8.3060722    2.1071982
    H     7.0447228    7.0027857    3.2593110
    H     7.9281445    7.3211810    1.7596723
    H     8.8439963    8.4047296    4.0465665
    H     8.7376070    9.3941401    2.5433866
    H     6.0375262   13.4145171    4.2200258
    H     5.8281415   11.7755743    3.4903103
    H     7.3926769   12.2753607    4.1948811
    H     4.7987737   13.4904923    6.0558314
    H     5.1105076   11.0460642    9.1325711
    H     6.2116743    9.3005317    7.8295956
    H     2.9593782   10.9684562    6.5432602
    H     0.9529852    9.6014255    5.7913370
    H     1.0123070    7.1816659    5.9649073
    H     2.2961620    5.4798682    6.3831015
    H     5.0798957    7.3475733    7.4499832
*
