! RI-MP2 cc-pVTZ cc-pVTZ/c TightSCF KeepDens NoKeepInts

*xyz  0  1
    C    -2.4835253   14.6293394    7.7937730
    C    -3.9202917   14.2744813    7.7458046
    O    -4.3287013   14.6592660    6.4162481
    C    -5.6443702   14.6229965    5.9532897
    O    -6.6098783   14.3410118    6.6272874
    C    -5.9128025   15.1795610    4.5988326
    C    -4.9898069   15.4278253    3.6559957
    C    -3.4474000   15.3644639    3.7902007
    N    -5.3188559   15.9994903    2.3818605
    C    -6.4774183   16.5754677    2.1885827
    S    -6.8430223   17.4617927    0.7800522
    N    -7.3982058   16.4668016    3.1858512
    C    -7.3517385   15.3277999    4.1217201
    C    -7.9438125   14.0729659    3.4712109
    C    -9.2817477   13.9552726    3.0774197
    C    -9.7984437   12.7357767    2.6733922
    C    -9.0631370   11.5711069    2.6046089
    C    -7.7190910   11.6038873    3.0182146
    O    -6.9509992   10.4806872    2.9623862
    C    -7.1622442   12.8512732    3.4226503
    H    -2.5055934   15.7230410    7.8744707
    H    -1.8899395   14.5319486    6.8765153
    H    -1.9358030   14.2767680    8.6763167
    H    -4.0926566   13.2056300    7.9219772
    H    -4.5439523   14.7869289    8.4885293
    H    -2.8676481   15.5945638    2.8879084
    H    -3.3076890   14.3167324    4.0833474
    H    -3.0617311   15.8813385    4.6774946
    H    -4.5893270   16.1432860    1.6940546
    H    -8.2606399   16.9842749    3.0658678
    H    -7.9488376   15.6248981    4.9925789
    H    -9.8658854   14.8684334    3.1431567
    H   -10.7800369   12.7086797    2.2095631
    H    -9.4858374   10.6448614    2.2267339
    H    -7.5488628    9.8578234    2.5136891
    H    -6.1248472   12.8046728    3.7405107
*
