! ri-mp2 cc-pvtz cc-pvtz/c TightSCF  NoKeepInts

%scf
  MaxCore 4096
end
*xyz  0  1
    C       14.6968475   15.2069678   16.9981947
    C       15.7875988   14.7251041   16.0252827
    O       16.6673409   15.8337572   15.7649615
    C       17.8642970   15.8788268   16.4175430
    O       18.5580147   14.8820177   16.5317352
    C       17.9360394   17.0014014   17.4090278
    C       17.3426544   18.2090694   17.2325748
    C       16.5452250   18.6787374   16.0336657
    N       17.5096026   19.2118158   18.1927994
    C       18.3644729   19.1362886   19.2611468
    S       18.5975864   20.4160070   20.2825312
    N       19.0166561   17.9420747   19.4404176
    C       18.7451352   16.7092786   18.6764647
    C       18.0276606   15.6821546   19.5490693
    C       18.5221667   14.3692726   19.6568926
    C       17.8569709   13.4149255   20.4445989
    C       16.6849612   13.7747948   21.1311274
    C       16.1869754   15.0802504   21.0242702
    O       15.0493218   15.4283553   21.6765375
    C       16.8517291   16.0280738   20.2401080
    H       15.1379090   15.5155049   17.9538219
    H       13.9805583   14.4013168   17.1998968
    H       14.1470004   16.0574292   16.5772291
    H       16.3228433   13.8618068   16.4447665
    H       15.3148725   14.4081825   15.0868277
    H       15.5327214   18.2573820   16.0531035
    H       17.0218772   18.3631305   15.0971605
    H       16.4526846   19.7708524   15.9925073
    H       17.0403781   20.0959958   18.0777149
    H       19.6191345   17.9033378   20.2525456
    H       19.7126728   16.2865548   18.3690538
    H       19.4176799   14.0828575   19.1103933
    H       18.2474908   12.4012018   20.5141895
    H       16.1664409   13.0399481   21.7379044
    H       14.7729217   14.6646669   22.2051523
    H       16.4485577   17.0326587   20.1727840
*
