! ri-mp2 cc-pvtz cc-pvtz/c TightSCF  NoKeepInts

%scf
  MaxCore 4096
end
*xyz  0  1
    C       15.1714900   13.8104582   16.3539942
    C       15.3407397   15.2986592   16.7111271
    O       16.4285254   15.8416164   15.9403389
    C       17.6758578   15.7957167   16.4890065
    O       18.2517891   14.7322702   16.6389563
    C       17.9448076   16.9639758   17.3884602
    C       17.5209169   18.2259539   17.1294663
    C       16.7584145   18.7059856   15.9123471
    N       17.8534237   19.2639138   18.0050930
    C       18.7104293   19.1446780   19.0679820
    S       19.1406674   20.4486509   19.9895675
    N       19.1912327   17.8859079   19.3303213
    C       18.7425894   16.6517456   18.6571754
    C       17.9156986   15.7882386   19.6065222
    C       18.2313389   14.4296968   19.7915009
    C       17.4592912   13.6240729   20.6450044
    C       16.3598158   14.1804169   21.3202957
    C       16.0391932   15.5319787   21.1361051
    O       14.9709732   16.0698274   21.7766287
    C       16.8087626   16.3311174   20.2849027
    H       16.0502937   13.2313596   16.6645177
    H       15.0392358   13.6836447   15.2724065
    H       14.2938846   13.3910933   16.8602826
    H       14.4155822   15.8294986   16.4529122
    H       15.5146532   15.4183791   17.7894656
    H       17.1307988   18.2243281   14.9993310
    H       16.8511378   19.7885020   15.7613218
    H       15.6911951   18.4698763   16.0041306
    H       17.5130435   20.1956983   17.8278834
    H       19.7996785   17.8216196   20.1364924
    H       19.6379731   16.0850568   18.3626799
    H       19.0687008   13.9914479   19.2533363
    H       17.7112685   12.5728454   20.7737708
    H       15.7594628   13.5607501   21.9781624
    H       14.6112794   15.3879888   22.3640857
    H       16.5428555   17.3750306   20.1584257
*
