! ri-mp2 cc-pvtz cc-pvtz/c TightSCF  NoKeepInts

%scf
  MaxCore 4096
end
*xyz  0  1
    C       15.4765012   13.7587173   15.2568861
    C       15.0555746   14.9885675   16.0908750
    O       16.0935088   15.9923637   16.1375621
    C       17.3127471   15.7711175   16.7192974
    O       17.7770140   14.6559350   16.8835771
    C       17.7696669   16.9297999   17.5578586
    C       17.4446361   18.2269216   17.3191941
    C       16.6083433   18.7810186   16.1839153
    N       17.9705893   19.2361820   18.1322174
    C       18.9319305   19.0489075   19.0901298
    S       19.5924992   20.3169945   19.9215633
    N       19.3189128   17.7534568   19.3228053
    C       18.6712194   16.5621552   18.7419750
    C       17.8870031   15.8060664   19.8115427
    C       18.1325567   14.4399768   20.0429742
    C       17.4105862   13.7378229   21.0225850
    C       16.4331394   14.4066292   21.7788238
    C       16.1824047   15.7661658   21.5488883
    O       15.2343731   16.4131708   22.2727636
    C       16.9021993   16.4621709   20.5727090
    H       15.9659959   14.0681289   14.3252329
    H       14.5961768   13.1590711   14.9963364
    H       16.1614935   13.1073120   15.8124482
    H       14.1605701   15.4325778   15.6367027
    H       14.7924366   14.6703570   17.1086499
    H       16.8875697   18.3174170   15.2295132
    H       16.7301093   19.8640192   16.0604418
    H       15.5430872   18.5829407   16.3560651
    H       17.6994277   20.1938619   17.9762347
    H       20.0067159   17.6394383   20.0561618
    H       19.4660402   15.9017163   18.3661259
    H       18.8755729   13.9161901   19.4464281
    H       17.6064582   12.6798266   21.1871751
    H       15.8720818   13.8677637   22.5349614
    H       14.8834725   15.7825889   22.9193097
    H       16.6943861   17.5146507   20.4140699
*
