! ri-mp2 cc-pvtz cc-pvtz/c TightSCF NoKeepInts

%scf
  MaxCore 4096
end
*xyz  0  1
    C       15.4370550   13.3976711   16.1027369
    C       16.2652645   14.4644790   16.8366318
    O       16.7218908   15.3953009   15.8457198
    C       16.7684341   16.7515734   16.0366950
    O       16.3667813   17.4646094   15.1367752
    C       17.4212877   17.3029397   17.2871092
    C       17.3507150   18.6293074   17.5860581
    C       16.5288847   19.6949704   16.8918825
    N       18.1493942   19.1611036   18.6050636
    C       19.2383967   18.5195905   19.1343964
    S       20.3227665   19.2850796   20.1212397
    N       19.3943257   17.2060442   18.7711618
    C       18.3222604   16.4035872   18.1570256
    C       17.5911966   15.6776371   19.2879507
    C       18.0842768   14.4407652   19.7472323
    C       17.4372248   13.7495374   20.7848934
    C       16.2915655   14.3032860   21.3797470
    C       15.8068703   15.5421839   20.9408322
    O       14.7048911   16.0843649   21.5167390
    C       16.4500383   16.2262704   19.9045623
    H       15.0551921   12.6515812   16.8101560
    H       16.0488938   12.8805731   15.3529698
    H       14.5813682   13.8571892   15.5919010
    H       15.6256871   14.9600461   17.5787626
    H       17.1121883   13.9798068   17.3342206
    H       15.5013850   19.3485035   16.7233792
    H       16.9586052   19.9317406   15.9097573
    H       16.4674975   20.6275606   17.4648954
    H       18.0564429   20.1331007   18.8539001
    H       20.2006465   16.7506752   19.1784492
    H       18.7939743   15.6570999   17.5023734
    H       18.9757233   14.0119236   19.2966755
    H       17.8273688   12.7932743   21.1303083
    H       15.7901193   13.7750385   22.1843935
    H       14.4420100   15.5050965   22.2483430
    H       16.0563775   17.1884888   19.5990627
*
