! ri-mp2 cc-pvtz cc-pvtz/c TightSCF  NoKeepInts

%scf
  MaxCore 4096
end
*xyz  0  1
    C       15.3637547   14.1890486   14.9398280
    C       16.0435568   13.8855955   16.2931954
    O       16.7549286   15.0014740   16.8864727
    C       16.4419695   16.3340837   16.7760858
    O       15.4963521   16.7641851   16.1405032
    C       17.3580105   17.1971689   17.6024353
    C       17.2824290   18.5530955   17.6000762
    C       16.3179409   19.4192057   16.8178695
    N       18.1873021   19.3077670   18.3529368
    C       19.2565672   18.7955956   19.0376955
    S       20.3421665   19.7678018   19.8202148
    N       19.3847351   17.4303600   19.0385068
    C       18.3993221   16.4849945   18.4828559
    C       17.7455603   15.6995963   19.6164333
    C       17.9870581   14.3203393   19.7606923
    C       17.3870993   13.5945827   20.8035983
    C       16.5409073   14.2534213   21.7118181
    C       16.3018139   15.6276286   21.5738327
    O       15.4867111   16.2668724   22.4502408
    C       16.9003307   16.3471809   20.5350536
    H       14.4457622   14.7740781   15.0756062
    H       15.0824930   13.2542919   14.4402834
    H       16.0399164   14.7392684   14.2736957
    H       15.2696364   13.5464795   16.9941667
    H       16.7480202   13.0543117   16.1625505
    H       15.2827544   19.2039009   17.1124653
    H       16.4007760   19.2158838   15.7426765
    H       16.4874522   20.4922143   16.9649870
    H       18.1090296   20.3121321   18.3625982
    H       20.1609085   17.0800888   19.5849494
    H       18.9505776   15.7804971   17.8444840
    H       18.6376497   13.8078930   19.0572975
    H       17.5783784   12.5278623   20.9057926
    H       16.0754452   13.6975271   22.5190001
    H       15.1913226   15.6142423   23.1025440
    H       16.7083616   17.4113311   20.4505579
*
