! ri-mp2 cc-pvtz cc-pvtz/c TightSCF  NoKeepInts

%scf
  MaxCore 4096
end
*xyz  0  1
    C       14.2424008   15.2212539   16.4909620
    C       15.7077628   14.7673454   16.5946979
    O       16.5214774   15.7818235   15.9837527
    C       17.8048289   15.8873006   16.4275547
    O       18.5128827   14.8970473   16.5002022
    C       17.9470656   17.0112632   17.4069007
    C       17.3488866   18.2177977   17.2495159
    C       16.4940149   18.6698852   16.0842520
    N       17.5596694   19.2267040   18.1939242
    C       18.4458688   19.1476118   19.2364600
    S       18.7151264   20.4272577   20.2489804
    N       19.0983891   17.9506047   19.3983399
    C       18.8130726   16.7203543   18.6350847
    C       18.1404165   15.6791995   19.5255703
    C       18.6832897   14.3870211   19.6479078
    C       18.0543877   13.4186854   20.4482841
    C       16.8704584   13.7435869   21.1319701
    C       16.3239541   15.0281251   21.0094029
    O       15.1746898   15.3419342   21.6586376
    C       16.9519244   15.9896107   20.2117024
    H       14.0912488   16.1665080   17.0265448
    H       13.5763230   14.4688530   16.9305476
    H       13.9548723   15.3641252   15.4418870
    H       15.9702620   14.6459292   17.6552594
    H       15.8563541   13.8042058   16.0885686
    H       16.8953944   18.2978846   15.1332653
    H       16.4415282   19.7624893   16.0035046
    H       15.4699055   18.2900185   16.1852471
    H       17.0909328   20.1128150   18.0916560
    H       19.7239829   17.9109572   20.1927885
    H       19.7715710   16.3117596   18.2834578
    H       19.5876155   14.1270202   19.1028327
    H       18.4820579   12.4209009   20.5299269
    H       16.3803737   12.9976844   21.7489242
    H       14.9314676   14.5784186   22.2037337
    H       16.5125438   16.9780186   20.1317533
*
