! ri-mp2 cc-pvtz cc-pvtz/c TightSCF  NoKeepInts

%scf
  MaxCore 4096
end
*xyz  0  1
    C       15.1103142   13.8722554   16.4452611
    C       16.5563124   14.0052547   15.9204670
    O       17.2467936   15.0558258   16.6248241
    C       16.8317875   16.3583931   16.5496852
    O       16.0246808   16.7419316   15.7199030
    C       17.5904243   17.2571868   17.4864505
    C       17.4717190   18.6089130   17.4585152
    C       16.6107261   19.4346185   16.5266860
    N       18.2167684   19.3967392   18.3410374
    C       19.1531598   18.9205228   19.2192431
    S       20.0464948   19.9300359   20.1777722
    N       19.3134884   17.5592558   19.2652745
    C       18.4927674   16.5794168   18.5302590
    C       17.6816501   15.7393410   19.5128434
    C       17.9305695   14.3607166   19.6495032
    C       17.1777397   13.5835664   20.5458388
    C       16.1693954   14.1899276   21.3142595
    C       15.9216741   15.5633128   21.1837765
    O       14.9488841   16.1516806   21.9243636
    C       16.6722338   16.3340060   20.2905989
    H       15.1037759   13.7791219   17.5387459
    H       14.6337862   12.9790818   16.0238694
    H       14.4971637   14.7379162   16.1671865
    H       17.0862879   13.0573757   16.0785128
    H       16.5437124   14.2137061   14.8420773
    H       16.8773011   19.2390833   15.4802240
    H       16.7066936   20.5133954   16.6963285
    H       15.5517685   19.1730565   16.6485254
    H       18.1123405   20.3986113   18.3220173
    H       19.9824894   17.2359339   19.9521128
    H       19.1848133   15.9159321   17.9928985
    H       18.7047939   13.8882116   19.0510520
    H       17.3759310   12.5175455   20.6422029
    H       15.5852844   13.5940627   22.0078065
    H       14.5647538   15.4698003   22.4955450
    H       16.4685212   17.3962653   20.2083332
*
