! ri-mp2 cc-pvtz cc-pvtz/c TightSCF NoKeepInts

%scf
  MaxCore 4096
end
*xyz  0  1
    C       14.9826523   14.3672461   16.8327980
    C       16.4351100   13.9367962   16.5242120
    O       17.3859192   15.0298548   16.5120492
    C       17.0359151   16.3451543   16.3708037
    O       16.2401211   16.7204518   15.5275614
    C       17.7040846   17.2392232   17.3789691
    C       17.5562429   18.5884198   17.3653487
    C       16.7435320   19.4119126   16.3892210
    N       18.2194348   19.3766146   18.3104603
    C       19.1091805   18.9065778   19.2388507
    S       19.9119054   19.9182734   20.2723078
    N       19.3041012   17.5494913   19.2681247
    C       18.5564323   16.5639540   18.4665313
    C       17.7178405   15.6839083   19.3889378
    C       18.0885277   14.3470965   19.6270382
    C       17.3122083   13.5282179   20.4641948
    C       16.1580130   14.0512276   21.0717393
    C       15.7912044   15.3846952   20.8442008
    O       14.6778052   15.8928200   21.4295539
    C       16.5656813   16.1972174   20.0106217
    H       14.9383566   14.9884434   17.7360264
    H       14.3573066   13.4829363   17.0037757
    H       14.5404602   14.9229135   15.9968675
    H       16.7575609   13.1956359   17.2666314
    H       16.4464942   13.4444803   15.5431389
    H       17.0753587   19.2281561   15.3593427
    H       16.8166112   20.4903591   16.5718947
    H       15.6823381   19.1371385   16.4440997
    H       18.0900908   20.3757560   18.3030126
    H       19.9374953   17.2303277   19.9897468
    H       19.2955235   15.9284464   17.9585578
    H       18.9783913   13.9393943   19.1547327
    H       17.6061355   12.4949841   20.6412281
    H       15.5552578   13.4230471   21.7194671
    H       14.3058376   15.2025632   21.9989555
    H       16.2678700   17.2282652   19.8529980
*
