! ri-mp2 cc-pvtz cc-pvtz/c TightSCF  NoKeepInts

%scf
  MaxCore 4096
end
*xyz  0  1
    C       15.0896959   14.1534100   14.7712987
    C       15.2138555   14.7313622   16.1912191
    O       16.2106946   15.7687752   16.1519352
    C       17.3803894   15.6027456   16.8356656
    O       17.8425844   14.4966887   17.0635176
    C       17.8090183   16.8182986   17.6056370
    C       17.4619371   18.0940661   17.2930765
    C       16.6170820   18.5701500   16.1291074
    N       17.9674688   19.1563486   18.0497226
    C       18.9282023   19.0401576   19.0194194
    S       19.5643158   20.3643279   19.7793476
    N       19.3356404   17.7667613   19.3266445
    C       18.7093707   16.5339588   18.8130883
    C       17.9317031   15.8286409   19.9213543
    C       18.1979608   14.4825035   20.2329604
    C       17.4825173   13.8269573   21.2489874
    C       16.4908571   14.5227019   21.9611353
    C       16.2196329   15.8623350   21.6514965
    O       15.2580521   16.5350271   22.3328064
    C       16.9329371   16.5119069   20.6392031
    H       14.8238682   14.9390379   14.0533092
    H       14.3145596   13.3782859   14.7375582
    H       16.0392631   13.7018792   14.4569253
    H       14.2502097   15.1609574   16.4935497
    H       15.4698300   13.9368743   16.9060327
    H       16.9315494   18.0879415   15.1950293
    H       16.6890146   19.6529001   15.9698309
    H       15.5597122   18.3283862   16.2939477
    H       17.6814678   20.0990244   17.8385432
    H       20.0224937   17.7062782   20.0672706
    H       19.5161870   15.8653910   18.4794452
    H       18.9524457   13.9369858   19.6712749
    H       17.6945456   12.7836871   21.4759004
    H       15.9348516   14.0197468   22.7452478
    H       14.9137521   15.9374945   23.0134175
    H       16.7093340   17.5500062   20.4190945
*
