! ri-mp2 cc-pvtz cc-pvtz/c TightSCF  NoKeepInts

%scf
  MaxCore 4096
end
*xyz  0  1
    C       15.4914758   13.8938518   16.7027123
    C       15.2860566   15.2564034   16.0048763
    O       16.5055971   16.0045057   15.7709451
    C       17.6310187   15.8670671   16.5339828
    O       18.2378378   14.8138076   16.6310941
    C       17.8925312   17.0287636   17.4465283
    C       17.4601979   18.2978640   17.2305093
    C       16.6859643   18.8261176   16.0404632
    N       17.7889326   19.3075657   18.1406277
    C       18.6346959   19.1573739   19.2078213
    S       19.0476235   20.4319436   20.1775086
    N       19.1197563   17.8938343   19.4318910
    C       18.6963306   16.6830548   18.7037411
    C       17.8926500   15.7608717   19.6166038
    C       18.2793701   14.4198658   19.7950912
    C       17.5305867   13.5617741   20.6177064
    C       16.3836010   14.0476513   21.2680388
    C       15.9929368   15.3816802   21.0901138
    O       14.8806011   15.8515560   21.7089626
    C       16.7398886   16.2332487   20.2702233
    H       16.1665037   13.2535390   16.1207091
    H       14.5336730   13.3693740   16.8016991
    H       15.9075125   14.0195861   17.7107734
    H       14.7734171   15.1007051   15.0469013
    H       14.6211336   15.8602349   16.6359763
    H       15.6358516   18.5136625   16.0900571
    H       17.1074011   18.4472713   15.1007172
    H       16.7049411   19.9210480   15.9785048
    H       17.4452141   20.2431074   17.9931423
    H       19.7174762   17.8043831   20.2435451
    H       19.6041715   16.1502708   18.3852320
    H       19.1541881   14.0360460   19.2755879
    H       17.8371156   12.5246288   20.7417541
    H       15.8011417   13.3874425   21.9020080
    H       14.5385009   15.1392327   22.2699250
    H       16.4211056   17.2626672   20.1480265
*
