! ri-mp2 cc-pvtz cc-pvtz/c TightSCF NoKeepInts

%scf
  MaxCore 4096
end
*xyz  0  1
    C       14.5493481   14.6764634   16.5336579
    C       15.7177924   14.7527464   15.5352975
    O       16.4757154   15.9352071   15.8497382
    C       17.6307891   15.8314770   16.5707188
    O       18.2454919   14.7822663   16.6724887
    C       17.8729231   16.9905455   17.4934276
    C       17.3681201   18.2397261   17.3191665
    C       16.5040509   18.7444696   16.1817706
    N       17.6989764   19.2545195   18.2231689
    C       18.6234417   19.1393019   19.2275834
    S       19.0430885   20.4264871   20.1777130
    N       19.1835778   17.8995401   19.4038359
    C       18.7562433   16.6731520   18.7047202
    C       18.0371144   15.7322043   19.6678229
    C       18.4851793   14.4095886   19.8405453
    C       17.8201517   13.5366316   20.7178231
    C       16.6957912   13.9888188   21.4291557
    C       16.2437444   15.3041270   21.2569689
    O       15.1536775   15.7415058   21.9365012
    C       16.9077891   16.1706769   20.3832353
    H       14.9257827   14.5670248   17.5590875
    H       13.9090329   13.8143263   16.3111309
    H       13.9350589   15.5839901   16.4844386
    H       16.3256033   13.8385614   15.5752764
    H       15.3108714   14.8431928   14.5200355
    H       16.9124597   18.4319601   15.2126331
    H       16.4301894   19.8385067   16.1603296
    H       15.4855970   18.3445422   16.2634737
    H       17.2984293   20.1720569   18.1106611
    H       19.8386128   17.8333376   20.1722360
    H       19.6604929   16.1667257   18.3372242
    H       19.3430226   14.0517385   19.2764398
    H       18.1733500   12.5140080   20.8374444
    H       16.1778705   13.3171805   22.1055932
    H       14.8647978   15.0201019   22.5152373
    H       16.5428225   17.1852917   20.2674192
*
