! ri-mp2 cc-pvtz cc-pvtz/c TightSCF  NoKeepInts

%scf
  MaxCore 4096
end
*xyz  0  1
    C       15.6012827   13.6710300   15.2277093
    C       15.2817419   15.1786695   15.1387747
    O       16.0695242   16.0637012   15.9819995
    C       17.0852289   15.7469795   16.8484671
    O       17.5706517   14.6354859   16.9683265
    C       17.5962857   16.9119871   17.6546278
    C       17.2530197   18.2166156   17.4745287
    C       16.2999410   18.8110665   16.4569117
    N       17.8572789   19.2077194   18.2563010
    C       18.9055270   19.0028382   19.1133880
    S       19.6520722   20.2555897   19.8938332
    N       19.3020909   17.7025208   19.2900127
    C       18.5850130   16.5267248   18.7633885
    C       17.8809284   15.7808960   19.8944844
    C       18.1166939   14.4085076   20.0974309
    C       17.4708356   13.7158137   21.1351873
    C       16.5803615   14.4005583   21.9794055
    C       16.3396977   15.7665360   21.7788529
    O       15.4757579   16.4293021   22.5886814
    C       16.9836795   16.4531572   20.7447549
    H       16.6279517   13.4638208   14.9005498
    H       14.9253394   13.1018579   14.5784486
    H       15.4715615   13.2989006   16.2519186
    H       15.4050150   15.4943011   14.0948058
    H       14.2223135   15.3190364   15.3890648
    H       15.2789038   18.4457410   16.6231812
    H       16.5989675   18.5364219   15.4377526
    H       16.2635324   19.9064326   16.4975720
    H       17.5802122   20.1693481   18.1413324
    H       20.0561054   17.5723510   19.9520645
    H       19.3359064   15.8540608   18.3241305
    H       18.7916096   13.8726392   19.4343506
    H       17.6572699   12.6528144   21.2766343
    H       16.0778623   13.8690392   22.7805399
    H       15.1614236   15.7987275   23.2537104
    H       16.7854135   17.5108084   20.6108779
*
