! ri-mp2 cc-pvtz cc-pvtz/c TightSCF  NoKeepInts

%scf
  MaxCore 4096
end
*xyz  0  1
    C       15.0437873   14.5777021   16.8008588
    C       16.4812897   14.0207966   16.6809831
    O       17.4951642   15.0246262   16.4167983
    C       17.2103644   16.3494496   16.2342009
    O       16.5069404   16.7274745   15.3138929
    C       17.7094556   17.2298955   17.3483294
    C       17.4568349   18.5635944   17.3867574
    C       16.6413159   19.3733717   16.4014131
    N       18.0047191   19.3521146   18.4030277
    C       18.9217765   18.9169029   19.3218388
    S       19.6211855   19.9421271   20.4152708
    N       19.2401169   17.5836460   19.2823218
    C       18.5565816   16.5747337   18.4533118
    C       17.7443092   15.6534220   19.3576517
    C       18.2358110   14.3771879   19.6909729
    C       17.4949358   13.5203567   20.5223211
    C       16.2553396   13.9451877   21.0299037
    C       15.7700918   15.2210804   20.7123586
    O       14.5751231   15.6357501   21.2026406
    C       16.5100626   16.0720918   19.8859703
    H       14.9807062   15.3663855   17.5600746
    H       14.3541464   13.7772923   17.0943528
    H       14.6926991   14.9798699   15.8422703
    H       16.7328939   13.4927734   17.6087115
    H       16.5011491   13.2781859   15.8729649
    H       15.6170779   18.9844276   16.3366350
    H       17.0782362   19.3110883   15.3964742
    H       16.5751187   20.4346407   16.6680648
    H       17.7886706   20.3354963   18.4404589
    H       19.8963034   17.2869687   19.9930427
    H       19.3332078   15.9741053   17.9588700
    H       19.1936723   14.0457347   19.2985168
    H       17.8823284   12.5340127   20.7725757
    H       15.6794176   13.2872470   21.6725991
    H       14.2455437   14.9429026   21.7947881
    H       16.1206236   17.0593576   19.6627770
*
