! ri-mp2 cc-pvtz cc-pvtz/c TightSCF  NoKeepInts

%scf
  MaxCore 4096
end
*xyz  0  1
    C       15.3118574   14.1457832   16.8727933
    C       15.4864522   15.0142596   15.6040222
    O       16.4837606   16.0514656   15.7579848
    C       17.5939678   15.9013976   16.5393566
    O       18.2026760   14.8470519   16.6153951
    C       17.8562646   17.0512417   17.4671218
    C       17.3986942   18.3174521   17.2875534
    C       16.5818789   18.8569672   16.1315429
    N       17.7368494   19.3145160   18.2083776
    C       18.6166905   19.1583271   19.2467861
    S       19.0421744   20.4218229   20.2256241
    N       19.1252881   17.8980824   19.4338242
    C       18.6916705   16.6940974   18.7004840
    C       17.9152163   15.7547839   19.6198406
    C       18.3072247   14.4109457   19.7621958
    C       17.5835873   13.5373441   20.5909655
    C       16.4565724   14.0103742   21.2842091
    C       16.0604796   15.3471291   21.1424492
    O       14.9672756   15.8047088   21.8032228
    C       16.7824365   16.2141408   20.3163929
    H       16.1567622   13.4614162   17.0170741
    H       14.4076288   13.5314361   16.7874355
    H       15.2112950   14.7716027   17.7687425
    H       15.7758361   14.3570585   14.7734158
    H       14.5271085   15.4779184   15.3410844
    H       15.5491977   18.4903526   16.1830266
    H       17.0064378   18.5377882   15.1714306
    H       16.5445105   19.9529769   16.1159339
    H       17.3743350   20.2468698   18.0888143
    H       19.7476592   17.8027853   20.2259850
    H       19.5949991   16.1712587   18.3540909
    H       19.1663268   14.0374335   19.2100884
    H       17.8938598   12.4983935   20.6868619
    H       15.8934208   13.3383549   21.9231243
    H       14.6376412   15.0794581   22.3548374
    H       16.4589646   17.2450051   20.2219125
*
