! ri-mp2 cc-pvtz cc-pvtz/c TightSCF  NoKeepInts

%scf
  MaxCore 4096
end
*xyz  0  1
    C       14.9847038   16.1135476   17.3958212
    C       15.6503579   14.7353877   17.1788930
    O       16.9854725   14.7400631   16.6029905
    C       17.8606641   15.7764919   16.3859649
    O       18.5341761   15.7981262   15.3726748
    C       17.8422354   16.9401870   17.3220670
    C       17.5904345   18.1876023   16.8622691
    C       17.1975092   18.5589864   15.4488387
    N       17.6777098   19.2845479   17.7222786
    C       18.0038591   19.2104711   19.0508038
    S       18.0138432   20.5474938   20.0236074
    N       18.3119287   17.9659085   19.5414826
    C       18.3637066   16.7185393   18.7533776
    C       17.7606104   15.5401935   19.5182559
    C       18.3302114   14.2591272   19.3865214
    C       17.8056951   13.1629673   20.0911833
    C       16.7068427   13.3474721   20.9466198
    C       16.1442866   14.6218858   21.0941173
    O       15.0817213   14.8045006   21.9170536
    C       16.6674029   15.7114438   20.3903621
    H       15.4376883   16.6837148   18.2107309
    H       13.9302933   15.9708794   17.6622577
    H       15.0096390   16.7107243   16.4773715
    H       15.6794980   14.2078258   18.1404922
    H       15.0036305   14.1414525   16.5202512
    H       16.5995013   17.7708632   14.9753543
    H       18.0940579   18.6953545   14.8303438
    H       16.6095971   19.4836759   15.4083767
    H       17.4743424   20.2085035   17.3748786
    H       18.5295899   17.9395852   20.5299701
    H       19.4319082   16.4836065   18.6392635
    H       19.1781505   14.1085402   18.7223268
    H       18.2511314   12.1764458   19.9717928
    H       16.2985254   12.5030394   21.4925264
    H       14.8963251   13.9565570   22.3488624
    H       16.2097504   16.6862891   20.5240185
*
