! ri-mp2 cc-pvtz cc-pvtz/c TightSCF  NoKeepInts

%scf
  MaxCore 4096
end
*xyz  0  1
    C       15.5044068   14.2530874   14.8197507
    C       15.9062662   13.9551695   16.2817259
    O       16.6745989   15.0148082   16.8997923
    C       16.3995131   16.3550902   16.7998116
    O       15.4470031   16.8051908   16.1882430
    C       17.3418271   17.1907744   17.6239442
    C       17.2930827   18.5477023   17.6357581
    C       16.3359560   19.4396155   16.8738940
    N       18.2229661   19.2766393   18.3834647
    C       19.2926527   18.7363446   19.0457443
    S       20.4094468   19.6788243   19.8206817
    N       19.3940650   17.3688520   19.0301659
    C       18.3802763   16.4490157   18.4826317
    C       17.7265557   15.6692557   19.6201089
    C       17.9365343   14.2832451   19.7479588
    C       17.3368560   13.5626944   20.7946302
    C       16.5227141   14.2334943   21.7231588
    C       16.3149836   15.6143113   21.6014120
    O       15.5307886   16.2650508   22.4973508
    C       16.9131507   16.3286678   20.5588513
    H       14.6494229   14.9379830   14.7676947
    H       15.2081352   13.3264505   14.3137386
    H       16.3422986   14.6909551   14.2633301
    H       14.9935193   13.7802483   16.8664088
    H       16.4980474   13.0314449   16.3117620
    H       15.3007982   19.2436118   17.1817958
    H       16.3991569   19.2429282   15.7961440
    H       16.5300780   20.5076759   17.0265428
    H       18.1645264   20.2821807   18.4048336
    H       20.1718307   16.9976680   19.5603097
    H       18.9060584   15.7375563   17.8306170
    H       18.5620266   13.7615553   19.0287600
    H       17.5034822   12.4906955   20.8838887
    H       16.0575539   13.6816133   22.5332553
    H       15.2305872   15.6137099   23.1487425
    H       16.7458343   17.3978897   20.4870976
*
