! ri-mp2 cc-pvtz cc-pvtz/c TightSCF  NoKeepInts

%scf
  MaxCore 4096
end
*xyz  0  1
    C       14.8616673   14.4282033   17.2728311
    C       15.5157253   15.6641385   16.6338650
    O       16.7819419   15.2320405   16.0921366
    C       18.0133695   15.6627801   16.5217875
    O       18.9664435   14.9071710   16.4754057
    C       18.0481999   16.8888785   17.3761427
    C       17.5599034   18.0843731   16.9702373
    C       16.9430969   18.4075497   15.6261488
    N       17.6642247   19.1979170   17.8066151
    C       18.3257139   19.2115167   19.0073868
    S       18.4510328   20.5892947   19.9128135
    N       18.8732378   18.0226438   19.4244560
    C       18.7229537   16.7250138   18.7359422
    C       17.9407985   15.7302880   19.5878291
    C       18.3918151   14.4045031   19.7210543
    C       17.6603373   13.4715707   20.4747421
    C       16.4637880   13.8653554   21.0974832
    C       16.0065048   15.1827338   20.9601265
    O       14.8425554   15.5621609   21.5445944
    C       16.7369001   16.1097275   20.2099780
    H       15.4940659   14.0302254   18.0767710
    H       14.7164741   13.6372447   16.5264181
    H       13.8846384   14.6841419   17.7001676
    H       14.8743433   16.0418411   15.8272611
    H       15.6083613   16.4417459   17.3998986
    H       17.1407125   17.6260902   14.8817909
    H       17.3557419   19.3388179   15.2174262
    H       15.8562390   18.5286028   15.7083300
    H       17.2810059   20.0831850   17.5138484
    H       19.3354458   18.0581064   20.3243793
    H       19.7298690   16.3164148   18.5641580
    H       19.3056314   14.0910538   19.2205768
    H       18.0182161   12.4473101   20.5654188
    H       15.8938211   13.1460901   21.6763540
    H       14.5199901   14.8099012   22.0639321
    H       16.3622341   17.1233686   20.1156934
*
