! RI-MP2 cc-pVTZ cc-pVTZ/c TightSCF KeepDens NoKeepInts

*xyz  0  1
    C     0.2660751   -8.0352195   16.8042944
    C     1.2963724   -7.2821573   15.8642926
    O     2.5990539   -7.7718745   16.1324631
    C     3.3442546   -7.5733298   17.2386543
    O     3.1111479   -6.6879770   18.0691868
    C     4.6385926   -8.2749332   17.1971412
    C     4.9126432   -9.3395948   16.4221078
    C     4.0833257   -9.9264276   15.3408197
    N     6.1022138  -10.0805369   16.5207596
    C     6.9088123   -9.9201732   17.6255915
    S     8.0882450  -10.9805832   17.9913011
    N     6.5163810   -9.0466550   18.5817939
    C     5.5869607   -7.9146145   18.3404253
    C     6.5234060   -6.7098005   17.9782864
    C     7.3279439   -6.6371344   16.8019718
    C     8.1869172   -5.5719171   16.5499207
    C     8.3741390   -4.5433210   17.5325748
    C     7.5527866   -4.5738920   18.6679508
    O     7.7869270   -3.6047436   19.5786418
    C     6.5823957   -5.5799975   18.8950590
    H     0.4428698   -7.7926782   17.8593346
    H     0.2711910   -9.1308651   16.7520991
    H    -0.7773335   -7.7868387   16.5745222
    H     0.9780573   -7.4834022   14.8340664
    H     1.1924545   -6.1980583   15.9951357
    H     3.9128486   -9.2251275   14.5148048
    H     3.1203273  -10.3413110   15.6628373
    H     4.6378995  -10.7495353   14.8737652
    H     6.4959059  -10.6732595   15.7998900
    H     7.0295397   -9.0719788   19.4547162
    H     5.0167946   -7.7946199   19.2697807
    H     7.3451006   -7.4580664   16.0912170
    H     8.8011832   -5.6136734   15.6553092
    H     9.1226128   -3.7756376   17.3598178
    H     7.2778040   -3.8460565   20.3719204
    H     5.9151016   -5.6262047   19.7506170
*
