! RI-MP2 cc-pVTZ cc-pVTZ/c TightSCF KeepDens NoKeepInts

*xyz  0  1
    C    11.4242034   -6.4516510   14.3743139
    C    10.2907837   -7.0869763   13.5832620
    O     9.1683305   -7.3972934   14.4866431
    C     8.9722406   -8.6278381   14.9975180
    O     9.8165643   -9.4760177   14.8726025
    C     7.6670003   -8.7938099   15.7653491
    C     6.6983960   -7.8604653   15.9714343
    C     6.6091931   -6.5375872   15.3021898
    N     5.7033652   -8.0664396   16.7716790
    C     5.6124770   -9.1331895   17.6347858
    S     4.5678174   -9.1062996   18.8706698
    N     6.4678683  -10.1496671   17.4504633
    C     7.4537922  -10.1898299   16.3868424
    C     7.0329099  -11.1197384   15.2631231
    C     7.3768050  -12.4358540   15.4719517
    C     6.8742862  -13.4255367   14.5591641
    C     6.1529993  -13.0186484   13.3920896
    C     5.8261782  -11.6768702   13.1819614
    O     5.0713188  -11.2592364   12.1264585
    C     6.2640094  -10.7082080   14.1376148
    H    12.2597716   -6.1285633   13.7413600
    H    11.7677637   -7.2053241   15.0934333
    H    11.0590565   -5.6417317   15.0176609
    H     9.9223222   -6.2919476   12.9234472
    H    10.6818260   -7.9067454   12.9682383
    H     5.6246115   -6.0664784   15.4110227
    H     6.6256998   -6.7482431   14.2258343
    H     7.4063150   -5.8529916   15.6170056
    H     4.9746829   -7.3833185   16.9400060
    H     6.4880589  -10.9372867   18.0870276
    H     8.3373269  -10.6121460   16.8810135
    H     8.0147187  -12.7050237   16.3086176
    H     6.9956935  -14.4821970   14.7785389
    H     5.8341068  -13.7764056   12.6825068
    H     5.4216669  -10.4003173   11.8327861
    H     6.0010155   -9.6642403   13.9949184
*
