! ri-mp2 cc-pvtz cc-pvtz/c TightSCF NoKeepInts

%scf
  MaxCore 4096
end
*xyz  0  1
    C       14.2958388   14.2798462   16.8194134
    C       14.4015560   15.5319494   15.9338473
    O       15.5502830   16.2780740   16.3665333
    C       15.8485322   17.4530674   15.7451312
    O       15.1850129   17.8529406   14.8026470
    C       17.0583216   18.1752129   16.2897322
    C       17.5888829   19.2516302   15.6475388
    C       17.1822345   19.8292694   14.3088050
    N       18.4615965   20.1028417   16.3489410
    C       18.5236634   20.1351730   17.7264324
    S       19.2222167   21.3857574   18.5533410
    N       17.9669008   19.0510253   18.3655871
    C       17.7482452   17.8046314   17.6222797
    C       17.2099889   16.6743696   18.4947216
    C       17.8334376   15.4122140   18.4936086
    C       17.3444788   14.3732046   19.3033356
    C       16.2255122   14.5982036   20.1231087
    C       15.6049488   15.8550441   20.1291023
    O       14.5187047   16.0719203   20.9129165
    C       16.0953672   16.8891400   19.3257278
    H       13.4430039   13.6629432   16.5118373
    H       14.1542466   14.5633260   17.8691065
    H       15.2073082   13.6744807   16.7438396
    H       14.5109692   15.2392545   14.8808761
    H       13.4921760   16.1396099   16.0363409
    H       17.1033444   19.0402407   13.5502367
    H       17.8969647   20.5702309   13.9323473
    H       16.1993570   20.3128869   14.3815431
    H       18.8537740   20.9055930   15.8824187
    H       17.9963904   19.0512513   19.3774866
    H       18.7670413   17.5045733   17.3376202
    H       18.6963987   15.2337654   17.8579713
    H       17.8307107   13.3996585   19.2919976
    H       15.8428743   13.7979444   20.7478935
    H       14.3327607   15.2477113   21.3871505
    H       15.5939542   17.8510114   19.3365794
*
