! ri-mp2 cc-pvtz cc-pvtz/c TightSCF NoKeepInts

%scf
  MaxCore 4096
end
*xyz  0  1
    C       13.7011966   16.1169306   16.1367542
    C       14.5248771   17.0683186   15.2467468
    O       15.7801178   16.4401382   14.9230306
    C       16.7064998   16.2812923   15.9126408
    O       17.0027114   15.1742427   16.3189291
    C       17.2902022   17.5620707   16.4397638
    C       17.4691729   18.6742327   15.6813390
    C       17.2850993   18.8224999   14.1867171
    N       17.6585781   19.9058739   16.3316811
    C       17.3310316   20.1039567   17.6585621
    S       17.1397992   21.6147433   18.3023873
    N       17.1500232   18.9579185   18.4023080
    C       17.6919995   17.6829949   17.9156485
    C       17.4207885   16.4974997   18.8350009
    C       18.4591124   15.6201301   19.1986114
    C       18.2079058   14.5309433   20.0501602
    C       16.9089179   14.3176165   20.5424260
    C       15.8738247   15.1910522   20.1823214
    O       14.6174353   14.9878055   20.6532280
    C       16.1274576   16.2796276   19.3425605
    H       13.5603724   15.1495136   15.6381830
    H       12.7117082   16.5423994   16.3433077
    H       14.1993768   15.9351877   17.0967470
    H       13.9683259   17.2627008   14.3208135
    H       14.6782274   18.0266889   15.7603215
    H       17.5344085   17.8912743   13.6617191
    H       17.9384905   19.6012481   13.7746295
    H       16.2496574   19.0835947   13.9377969
    H       17.7809003   20.7457666   15.7874156
    H       16.9088618   19.0766110   19.3786534
    H       18.7788725   17.8503035   17.9178092
    H       19.4605063   15.7722810   18.8059048
    H       19.0150036   13.8507351   20.3154354
    H       16.7096971   13.4731523   21.1934471
    H       14.6343383   14.1674610   21.1690168
    H       15.3115057   16.9411901   19.0759901
*
