! ri-mp2 cc-pvtz cc-pvtz/c TightSCF NoKeepInts

%scf
  MaxCore 4096
end
*xyz  0  1
    C       13.4812655   16.2491450   13.8719305
    C       14.3593916   15.7012177   15.0093915
    O       15.2532673   16.7529735   15.4086839
    C       16.1470852   16.5144922   16.4126069
    O       16.2107053   15.4266095   16.9574229
    C       17.0120943   17.7003730   16.7612039
    C       17.1610190   18.8016346   15.9731078
    C       16.6444200   19.0403147   14.5694817
    N       17.6842977   19.9756772   16.5454952
    C       17.7115758   20.1942103   17.9076690
    S       17.9231167   21.7008185   18.5565358
    N       17.5449069   19.0717002   18.6865344
    C       17.7707350   17.7455518   18.1006913
    C       17.6032285   16.6031827   19.0974255
    C       18.6108845   15.6319716   19.2478996
    C       18.4653916   14.5904201   20.1798433
    C       17.3043310   14.5199327   20.9685083
    C       16.2998372   15.4863391   20.8210281
    O       15.1783982   15.4208018   21.5826967
    C       16.4499970   16.5269219   19.8992729
    H       12.9052261   17.1183528   14.2130563
    H       12.7754645   15.4829222   13.5287260
    H       14.0990890   16.5545365   13.0184610
    H       13.7299513   15.3930806   15.8554540
    H       14.9268705   14.8282055   14.6593403
    H       16.8186263   18.1638031   13.9331760
    H       17.1374889   19.8905185   14.0830489
    H       15.5653929   19.2405351   14.5818404
    H       17.7918534   20.8014694   15.9779282
    H       17.5519285   19.2007057   19.6906119
    H       18.8361958   17.7682767   17.8303228
    H       19.5052405   15.6780760   18.6331581
    H       19.2461548   13.8393710   20.2828821
    H       17.1858262   13.7147001   21.6854624
    H       15.2385205   14.6120677   22.1125558
    H       15.6572183   17.2590887   19.7945415
*
