! ri-mp2 cc-pvtz cc-pvtz/c TightSCF NoKeepInts

%scf
  MaxCore 4096
end
*xyz  0  1
    C       14.1276550   15.4473069   14.2303051
    C       13.7079326   16.5455818   15.2278321
    O       14.8652792   17.3237510   15.5883804
    C       15.7821225   16.8312841   16.4755228
    O       15.6251430   15.7571351   17.0284870
    C       16.9642147   17.7405159   16.7001542
    C       17.3184270   18.7586482   15.8677798
    C       16.7419215   19.1197713   14.5148019
    N       18.1933687   19.7502433   16.3482182
    C       18.4219851   19.9557289   17.6934940
    S       19.0957470   21.3512042   18.2717507
    N       18.0446048   18.9208569   18.5189719
    C       17.8439470   17.5816605   17.9538831
    C       17.4807163   16.5289320   18.9961245
    C       18.2043267   15.3244140   19.0783572
    C       17.8819717   14.3626621   20.0507934
    C       16.8290921   14.6074404   20.9488787
    C       16.1075463   15.8065129   20.8694245
    O       15.0912788   16.0453668   21.7367260
    C       16.4351650   16.7661197   19.9067173
    H       14.8139210   14.7302411   14.6980739
    H       14.6248885   15.8854783   13.3564089
    H       13.2482363   14.8923233   13.8819743
    H       12.9685920   17.1991357   14.7475414
    H       13.2413911   16.1007875   16.1178008
    H       16.5915081   18.2232921   13.9006316
    H       17.4005635   19.7882535   13.9474057
    H       15.7717117   19.6201873   14.6274001
    H       18.4568416   20.5156687   15.7479297
    H       18.1915186   19.0452690   19.5128451
    H       18.8419257   17.3156257   17.5769954
    H       19.0122741   15.1279000   18.3794397
    H       18.4416032   13.4306945   20.1009254
    H       16.5737003   13.8654852   21.6976991
    H       14.9869765   15.2513756   22.2817945
    H       15.8589006   17.6831471   19.8565332
*
