! ri-mp2 cc-pvtz cc-pvtz/c TightSCF NoKeepInts

%scf
  MaxCore 4096
end
*xyz  0  1
    C       13.8287237   15.3819470   16.0988580
    C       15.2478671   15.0492990   15.5962836
    O       16.1797741   15.9862453   16.1654280
    C       16.2590219   17.2662465   15.7006839
    O       15.6555212   17.6244550   14.7026084
    C       17.1885969   18.1587268   16.4858942
    C       17.6155470   19.3511512   15.9898786
    C       17.3627260   19.9256177   14.6129101
    N       18.1669738   20.2980459   16.8717121
    C       17.9670180   20.2497421   18.2359147
    S       18.2477146   21.5495073   19.2195432
    N       17.5145962   19.0440756   18.7221578
    C       17.6755802   17.8295556   17.9145193
    C       17.1933791   16.5697168   18.6273468
    C       18.0389772   15.4521006   18.7587981
    C       17.5935307   14.2935248   19.4173867
    C       16.2934647   14.2521402   19.9495866
    C       15.4508714   15.3649615   19.8233190
    O       14.1930433   15.3255869   20.3304672
    C       15.8978897   16.5192638   19.1731318
    H       13.7971992   15.3868293   17.1953737
    H       13.1108462   14.6352425   15.7392164
    H       13.5021860   16.3653524   15.7385012
    H       15.5126558   14.0357882   15.9235354
    H       15.2850923   15.0755724   14.4987058
    H       16.3114506   20.2240031   14.5082656
    H       17.5698464   19.1797865   13.8351582
    H       17.9863711   20.8013518   14.3988386
    H       18.4773184   21.1879243   16.5145965
    H       17.3497558   18.9844898   19.7191330
    H       18.7673103   17.7324431   17.8265648
    H       19.0423039   15.4783417   18.3424504
    H       18.2534166   13.4328120   19.5109014
    H       15.9445821   13.3581314   20.4557357
    H       14.0788916   14.4638275   20.7587742
    H       15.2269555   17.3661934   19.0758173
*
