! ri-mp2 cc-pvtz cc-pvtz/c TightSCF NoKeepInts

%scf
  MaxCore 4096
end
*xyz  0  1
    C       14.0391006   15.5165534   13.9974243
    C       15.2036841   16.3785162   13.4698139
    O       15.7900250   17.1022472   14.5681397
    C       16.6106576   16.4628311   15.4534831
    O       16.9438966   15.2967072   15.3216841
    C       17.0831800   17.3084586   16.5981763
    C       16.7193690   18.5907926   16.8628493
    C       15.7002184   19.4518681   16.1491883
    N       17.5949884   19.3446707   17.6665346
    C       18.9055086   18.9577927   17.8867653
    S       20.0566978   20.0018801   18.4551245
    N       19.1859172   17.6284551   17.6302690
    C       18.0763693   16.6611486   17.5677888
    C       17.4373940   16.4772044   18.9580030
    C       18.0977091   16.8190254   20.1603420
    C       17.4784365   16.6214666   21.4058152
    C       16.1915593   16.0634427   21.4645848
    C       15.5378037   15.7006854   20.2810027
    O       14.2979883   15.1514224   20.3317785
    C       16.1555021   15.8989909   19.0423071
    H       14.4007129   14.7383676   14.6812305
    H       13.5244832   15.0201537   13.1658454
    H       13.3082522   16.1359817   14.5316809
    H       15.9530072   15.7496088   12.9694408
    H       14.8130041   17.0928867   12.7338885
    H       14.7405119   18.9275737   16.0633906
    H       16.0426556   19.7029339   15.1374905
    H       15.5060306   20.3904908   16.6817495
    H       17.3860428   20.3085553   17.8702011
    H       20.1362375   17.3250066   17.7950577
    H       18.3770476   15.6567510   17.2357720
    H       19.0962609   17.2469980   20.1435832
    H       17.9992561   16.9012424   22.3200552
    H       15.7112756   15.9098909   22.4252206
    H       14.0569290   15.0690251   21.2668291
    H       15.6292850   15.5903743   18.1454895
*
