! ri-mp2 cc-pvtz cc-pvtz/c TightSCF NoKeepInts

%scf
  MaxCore 4096
end
*xyz  0  1
    C       15.5225176   13.9236978   14.0643523
    C       15.3344085   15.4493470   14.0197276
    O       16.0433954   16.0040321   15.1392524
    C       16.0223934   17.3569712   15.3245607
    O       15.4225703   18.1106983   14.5768146
    C       16.7947663   17.7897431   16.5352507
    C       16.8844201   19.0800929   16.9441757
    C       16.1963656   20.2855851   16.3452870
    N       17.9760284   19.4173782   17.7650845
    C       19.0904384   18.6036001   17.8706160
    S       20.5345923   19.1420983   18.4728464
    N       18.9143292   17.2939343   17.4635007
    C       17.5488958   16.7472977   17.3731321
    C       16.9280969   16.6251531   18.7783038
    C       17.7076523   16.5447922   19.9547287
    C       17.1017826   16.4168624   21.2157488
    C       15.7029516   16.3516042   21.3143119
    C       14.9222808   16.4081427   20.1537403
    O       13.5702600   16.3338749   20.2408740
    C       15.5270633   16.5366612   18.8994831
    H       16.5858688   13.6626391   13.9952961
    H       14.9969734   13.4471428   13.2278436
    H       15.1237229   13.5118621   14.9998445
    H       15.7327726   15.8500040   13.0776045
    H       14.2660961   15.6976515   14.0819632
    H       15.1168774   20.1097551   16.2563612
    H       16.5802392   20.4886229   15.3374055
    H       16.3315657   21.1889892   16.9511465
    H       18.0997220   20.3696362   18.0689293
    H       19.7186702   16.6866600   17.5437025
    H       17.5078985   15.7387951   16.9408207
    H       18.7922437   16.5885395   19.9061593
    H       17.7192837   16.3693819   22.1112504
    H       15.2326097   16.2528440   22.2870605
    H       13.3450156   16.2513047   21.1799715
    H       14.8922350   16.5646030   18.0208442
*
