! ri-mp2 cc-pvtz cc-pvtz/c TightSCF NoKeepInts

%scf
  MaxCore 4096
end
*xyz  0  1
    C       14.3925847   15.0104233   14.9089774
    C       14.1698475   15.6556409   16.2912477
    O       15.3543415   16.3784453   16.6710358
    C       15.6389916   17.5985315   16.1324742
    O       14.8903536   18.1332100   15.3311073
    C       16.9479865   18.1980726   16.5896985
    C       17.4680312   19.3055798   15.9936585
    C       16.9461516   20.0366244   14.7754639
    N       18.4721611   20.0315964   16.6594928
    C       18.6999150   19.9167728   18.0150852
    S       19.5700418   21.0367436   18.8660914
    N       18.1515317   18.8040896   18.6109892
    C       17.7654077   17.6549065   17.7841583
    C       17.2618671   16.4706925   18.6045071
    C       17.7970166   15.1840255   18.4049944
    C       17.3374006   14.0939134   19.1631197
    C       16.3364665   14.2915335   20.1295995
    C       15.8037078   15.5719731   20.3324029
    O       14.8356674   15.7649850   21.2633113
    C       16.2654577   16.6565268   19.5802162
    H       14.5138318   15.7744864   14.1311647
    H       13.5337370   14.3853072   14.6367235
    H       15.2885887   14.3777096   14.9178340
    H       13.2943299   16.3190024   16.2729032
    H       13.9824028   14.8641133   17.0281358
    H       16.7450953   19.3346940   13.9563554
    H       17.6507737   20.7859450   14.3963911
    H       16.0025080   20.5469381   15.0083848
    H       18.8569636   20.8572319   16.2282690
    H       18.2970192   18.6989806   19.6072186
    H       18.7214414   17.3327603   17.3467343
    H       18.5668932   15.0267299   17.6545190
    H       17.7552130   13.1021457   18.9993562
    H       15.9777572   13.4521658   20.7160700
    H       14.6634610   14.9101572   21.6858563
    H       15.8320565   17.6373490   19.7444488
*
