! ri-mp2 cc-pvtz cc-pvtz/c TightSCF NoKeepInts

%scf
  MaxCore 4096
end
*xyz  0  1
    C       14.2576882   14.4413360   16.4347497
    C       14.3180202   15.8295193   15.7762213
    O       15.4774789   16.5003538   16.2931719
    C       15.7499338   17.7720703   15.8897860
    O       15.0425904   18.3409677   15.0743979
    C       16.9923491   18.3779772   16.4986365
    C       17.4956118   19.5619314   16.0540597
    C       17.0213102   20.3908701   14.8798231
    N       18.4144751   20.2590144   16.8593513
    C       18.5546846   20.0171529   18.2100250
    S       19.3074156   21.0813364   19.2281289
    N       18.0231085   18.8273074   18.6520427
    C       17.7524303   17.7523047   17.6904739
    C       17.2586173   16.4692092   18.3533402
    C       17.8709853   15.2348939   18.0647553
    C       17.4302515   14.0554207   18.6884427
    C       16.3708392   14.1101145   19.6101140
    C       15.7599225   15.3377325   19.9004128
    O       14.7332918   15.3922997   20.7857600
    C       16.2017794   16.5109752   19.2810778
    H       15.1785873   13.8789280   16.2367453
    H       13.4094716   13.8659660   16.0450421
    H       14.1384787   14.5370170   17.5207187
    H       14.3922854   15.7259100   14.6853812
    H       13.4082992   16.3971659   16.0143900
    H       16.0355045   20.8260294   15.0894281
    H       16.9208360   19.7704269   13.9803516
    H       17.7067035   21.2105370   14.6346975
    H       18.7864332   21.1397061   16.5403730
    H       18.1057696   18.6277101   19.6409978
    H       18.7510910   17.5187951   17.2938613
    H       18.6885999   15.1885838   17.3506163
    H       17.9086100   13.1055161   18.4565432
    H       16.0265703   13.2015402   20.0928842
    H       14.5882156   14.4941459   21.1192537
    H       15.7087572   17.4492340   19.5119439
*
