! ri-mp2 cc-pvtz cc-pvtz/c TightSCF NoKeepInts

%scf
  MaxCore 4096
end
*xyz  0  1
    C       13.3792465   15.9053423   15.5318470
    C       14.5557488   16.0470679   14.5449998
    O       15.4941428   17.0083275   15.0654008
    C       16.3297377   16.6700128   16.0935814
    O       16.3841566   15.5328334   16.5275382
    C       17.1544941   17.8195223   16.6143693
    C       17.3772613   18.9760090   15.9310226
    C       17.0002779   19.3197309   14.5053496
    N       17.8382664   20.1004259   16.6399885
    C       17.7317016   20.2130394   18.0112887
    S       17.8729192   21.6644202   18.7918252
    N       17.4926532   19.0346895   18.6816841
    C       17.7774742   17.7560383   18.0207021
    C       17.5074276   16.5412378   18.9024236
    C       18.5010530   15.5640634   19.0996170
    C       18.2563993   14.4536907   19.9253188
    C       17.0093367   14.3196266   20.5593577
    C       16.0186140   15.2919415   20.3649918
    O       14.8136494   15.1645619   20.9764718
    C       16.2669656   16.4009563   19.5506221
    H       13.7132806   15.4818680   16.4876203
    H       12.6120044   15.2393826   15.1190703
    H       12.9173605   16.8807762   15.7280260
    H       15.0398211   15.0744199   14.3809661
    H       14.1707159   16.4028239   13.5808776
    H       15.9290970   19.5466681   14.4311853
    H       17.2168938   18.4830019   13.8297319
    H       17.5544110   20.1870684   14.1268094
    H       17.9980113   20.9669126   16.1507666
    H       17.4001753   19.0863111   19.6884700
    H       18.8645529   17.7916451   17.8601800
    H       19.4622206   15.6592798   18.6026108
    H       19.0277718   13.6988084   20.0647085
    H       16.8145266   13.4610189   21.1928439
    H       14.8201835   14.3190157   21.4492102
    H       15.4844456   17.1374585   19.4065246
*
