! RI-MP2 cc-pVTZ cc-pVTZ/c TightSCF KeepDens NoKeepInts

*xyz  0  1
    C    -0.0113992   -5.0697507    2.1184903
    C     1.2650119   -4.4659782    1.6271528
    O     1.6706597   -3.3554861    2.3890765
    C     0.9675370   -2.2167616    2.4060321
    O     0.3895738   -1.8243521    1.3950306
    C     1.4077057   -1.2682101    3.4592355
    C     2.1354186   -1.5541537    4.5490491
    C     2.4718599   -2.8644345    5.1030079
    N     2.5686594   -0.5655049    5.4342643
    C     2.2543738    0.7523363    5.3207021
    S     2.7674898    1.7790703    6.4896870
    N     1.6211897    1.1359725    4.1734616
    C     1.2691885    0.1982074    3.0781864
    C     2.1524009    0.5756956    1.8749823
    C     3.4060472   -0.0183056    1.7528704
    C     4.2370623    0.3025941    0.6349772
    C     3.8126317    1.2066512   -0.3733822
    C     2.5511324    1.7960507   -0.1995925
    O     2.1592815    2.6568890   -1.1667712
    C     1.7510673    1.4980063    0.9059344
    H    -0.0555374   -5.1180398    3.2134370
    H    -0.1997548   -6.0875902    1.7555653
    H    -0.8317145   -4.4613877    1.7182877
    H     2.0419292   -5.2399942    1.6050479
    H     1.2051533   -4.2645426    0.5505702
    H     3.4688478   -3.1919593    4.7837406
    H     1.6793797   -3.5932654    4.8933172
    H     2.5540537   -2.9549512    6.1930694
    H     3.1327480   -0.8125419    6.2384693
    H     1.5699848    2.1358025    4.0195640
    H     0.2499827    0.4046662    2.7292106
    H     3.8299256   -0.6459668    2.5311856
    H     5.1922501   -0.1915076    0.4837042
    H     4.3550322    1.4349914   -1.2861026
    H     1.1887829    2.5872107   -1.1641761
    H     0.7634213    1.9160160    1.0768713
*
