! ri-mp2 cc-pvtz cc-pvtz/c TightSCF NoKeepInts

%scf
  MaxCore 4096
end
*xyz  0  1
    C       15.4066329   13.6092697   15.8451408
    C       16.8987300   13.9564348   15.6728611
    O       17.2568357   14.9705166   16.6302814
    C       16.8907238   16.2752690   16.4302903
    O       16.3459177   16.6412542   15.4020938
    C       17.2250770   17.1487102   17.6138103
    C       17.1448378   18.4977114   17.4456230
    C       16.3463846   19.2697815   16.4144427
    N       17.8459616   19.3536445   18.2996487
    C       18.8728054   18.9671561   19.1156347
    S       19.7758839   20.0589502   19.9687825
    N       19.1292796   17.6224605   19.1682449
    C       18.2722530   16.5720315   18.5860552
    C       17.5864092   15.8172556   19.7195402
    C       17.7748478   14.4297463   19.8591982
    C       17.1428031   13.7224350   20.8957730
    C       16.3139129   14.4078174   21.8002568
    C       16.1215035   15.7893779   21.6629193
    O       15.3185596   16.4530076   22.5324086
    C       16.7519661   16.4905482   20.6303485
    H       15.1946352   13.3149205   16.8806182
    H       15.1291063   12.7765000   15.1878094
    H       14.7698607   14.4659083   15.5911548
    H       17.4972118   13.0557040   15.8596906
    H       17.1009983   14.2939548   14.6469972
    H       15.3431101   18.8401808   16.2985710
    H       16.8378673   19.2289668   15.4339737
    H       16.2151317   20.3253914   16.6797315
    H       17.6894998   20.3474088   18.2451064
    H       19.8765185   17.3620764   19.7990332
    H       18.9539930   15.9063189   18.0387832
    H       18.4089645   13.8964436   19.1560016
    H       17.2943668   12.6490166   20.9943559
    H       15.8229335   13.8659490   22.6018224
    H       14.9997474   15.8100146   23.1832326
    H       16.5917274   17.5598594   20.5437643
*
