! ri-mp2 cc-pvtz cc-pvtz/c TightSCF  NoKeepInts

%scf
  MaxCore 4096
end
*xyz  0  1
    C       14.6957162   14.0504712   15.2160095
    C       16.1320705   14.0291314   15.7632743
    O       16.4335754   15.2973425   16.3834371
    C       17.6855931   15.4298972   16.9204802
    O       18.5150903   14.5323363   16.8849947
    C       17.9126123   16.6916195   17.6954363
    C       17.2708647   17.8814746   17.5381237
    C       16.1179701   18.2006776   16.6147794
    N       17.8189679   19.0399091   18.1303138
    C       18.8943787   19.0796672   18.9926249
    S       19.3536852   20.4779242   19.7495690
    N       19.4560113   17.8686227   19.3237896
    C       19.0766420   16.6012653   18.6747363
    C       18.1810319   16.2241145   19.9060290
    C       18.3122483   14.8758764   20.3263925
    C       17.3844326   14.2599197   21.1761435
    C       16.2846816   14.9880385   21.6420350
    C       16.1473708   16.3323886   21.2835695
    O       15.0531224   17.0218087   21.6898127
    C       17.0790070   16.9506744   20.4418465
    H       14.5287437   13.1788022   14.5702598
    H       14.5205966   14.9530633   14.6204719
    H       13.9652096   14.0143657   16.0366885
    H       16.2156587   13.2213777   16.5048889
    H       16.8436014   13.8133546   14.9569633
    H       16.3501363   17.9218090   15.5808934
    H       15.8607787   19.2675527   16.6226989
    H       15.2234984   17.6500045   16.9271264
    H       17.4144161   19.9389460   17.9275888
    H       20.1639757   17.8881854   20.0466591
    H       19.7283160   15.7212667   18.6949730
    H       19.1053463   14.2493059   19.9214155
    H       17.4997402   13.2071124   21.4256730
    H       15.5386551   14.5039197   22.2608837
    H       14.5093590   16.4117052   22.2100385
    H       16.8738952   17.9780770   20.1733769
*
