! ri-mp2 cc-pvtz cc-pvtz/c TightSCF  NoKeepInts

%scf
  MaxCore 4096
end
*xyz  0  1
    C       15.3823356   13.6651653   15.8818088
    C       15.1216983   15.1194439   16.2849635
    O       16.1754933   15.8873836   16.8287291
    C       17.5058545   15.9176594   16.5607193
    O       18.1881284   14.9253014   16.3640167
    C       17.8306801   16.9620911   17.5491894
    C       17.3991791   18.2358301   17.3105144
    C       16.7021179   18.7765857   16.0676756
    N       17.9630578   19.2233602   18.1251695
    C       18.8739624   19.0503749   19.1324893
    S       19.3978129   20.3473645   20.0176393
    N       19.3029461   17.7646284   19.3731057
    C       18.8662599   16.5824867   18.5944926
    C       17.9745589   15.9243968   19.7097785
    C       18.2007619   14.5315440   19.9246483
    C       17.4200204   13.7518152   20.7900812
    C       16.3538866   14.3462537   21.4675849
    C       16.0743528   15.7031833   21.2504149
    O       15.0147745   16.2524632   21.8959950
    C       16.8593128   16.4849116   20.3752056
    H       15.6608097   13.6419181   14.8201270
    H       14.4575342   13.0892564   15.9946587
    H       16.1769581   13.1888835   16.4668485
    H       14.2657692   15.6384123   15.8329741
    H       14.7302863   14.9163144   17.2878167
    H       17.0635330   18.2916837   15.1489850
    H       16.8778316   19.8530869   15.9241945
    H       15.6209152   18.6216825   16.1288849
    H       17.7031610   20.1839755   17.9556564
    H       19.9220690   17.6671375   20.1651426
    H       19.4552767   15.6768856   18.4534032
    H       18.9822642   14.0022994   19.3831726
    H       17.6378878   12.6902825   20.9186490
    H       15.7458714   13.7461604   22.1401422
    H       14.6622912   15.5755553   22.4969852
    H       16.5773418   17.5162178   20.2121413
*
