! ri-mp2 cc-pvtz cc-pvtz/c TightSCF  NoKeepInts

%scf
  MaxCore 4096
end
*xyz  0  1
    C       15.7437462   13.7510560   14.9820886
    C       15.1616132   15.1535795   15.2617195
    O       15.8784699   15.9900979   16.2111668
    C       17.0829619   15.7500776   16.8198282
    O       17.5318527   14.6224714   16.9718956
    C       17.4977943   16.8644656   17.7471725
    C       17.1909177   18.1825600   17.4952237
    C       16.3116072   18.7821534   16.4324019
    N       17.8980197   19.1559423   18.2292385
    C       18.9441231   18.9668406   19.0884379
    S       19.7252223   20.2195143   19.8322329
    N       19.2944343   17.6611593   19.3175384
    C       18.6692986   16.5023665   18.6610804
    C       17.9161350   15.8356258   19.9024656
    C       18.0846368   14.4373823   20.1322413
    C       17.4342614   13.7530852   21.1867502
    C       16.5666790   14.4569202   22.0380167
    C       16.3556812   15.8244640   21.8105540
    O       15.5091625   16.5113236   22.6294009
    C       17.0089622   16.4951147   20.7570784
    H       16.7501432   13.8656723   14.5499476
    H       15.1346386   13.2310185   14.2326617
    H       15.8089343   13.1195723   15.8725460
    H       14.8914859   15.6656458   14.3350191
    H       14.2082694   14.9578277   15.7896766
    H       15.2803442   18.4865776   16.6373617
    H       16.5823194   18.4391525   15.4235543
    H       16.3484634   19.8804843   16.4218991
    H       17.6426461   20.1270056   18.1022508
    H       20.0805126   17.5276426   19.9419890
    H       19.2260214   15.6205415   18.4007329
    H       18.7299799   13.8467940   19.4811987
    H       17.5974188   12.6803328   21.3489213
    H       16.0616589   13.9444309   22.8555422
    H       15.1882880   15.8977482   23.3099424
    H       16.8102940   17.5453539   20.6242270
*
