! ri-mp2 cc-pvtz cc-pvtz/c TightSCF NoKeepInts

%scf
  MaxCore 4096
end
*xyz  0  1
    C       14.2989059   14.9328410   15.5461549
    C       15.4007786   15.3612323   16.5288833
    O       16.5980702   15.5785968   15.7577611
    C       17.7674836   15.9516347   16.3651999
    O       18.8465908   15.5632181   15.9587077
    C       17.6173340   16.7993212   17.5875975
    C       17.1802538   18.0660827   17.3566467
    C       16.4675816   18.5919838   16.1235717
    N       17.4455588   19.0760393   18.2849589
    C       18.4315924   19.0101343   19.2311932
    S       18.8268562   20.3100249   20.1739268
    N       19.0927109   17.8132108   19.3314142
    C       18.6720261   16.5595067   18.6751299
    C       18.1147336   15.5963186   19.7144324
    C       18.6478700   14.2998403   19.8300540
    C       18.1235898   13.3926232   20.7664340
    C       17.0538553   13.7834033   21.5901047
    C       16.5172221   15.0727811   21.4737969
    O       15.4771760   15.4501914   22.2588991
    C       17.0411173   15.9736073   20.5415664
    H       13.3683389   14.7092027   16.0818819
    H       14.6020265   14.0338222   14.9946174
    H       14.0958530   15.7301048   14.8203150
    H       15.0834374   16.2664255   17.0602838
    H       15.5684412   14.5648768   17.2668690
    H       15.3974995   18.3568103   16.1509000
    H       16.8830141   18.1686877   15.2001305
    H       16.5630152   19.6809382   16.0284063
    H       16.9987753   19.9745831   18.1910239
    H       19.8182774   17.7866018   20.0365929
    H       19.5774409   16.1376291   18.2138623
    H       19.4690728   13.9920354   19.1868357
    H       18.5443831   12.3916101   20.8486888
    H       16.6443379   13.0847135   22.3121733
    H       15.2992167   14.7239496   22.8754578
    H       16.6125605   16.9674174   20.4695248
*
