! ri-mp2 cc-pvtz cc-pvtz/c TightSCF  NoKeepInts

%scf
  MaxCore 4096
end
*xyz  0  1
    C       15.8477511   12.9953434   16.4743483
    C       15.7206367   14.3981641   15.8497538
    O       16.5221626   15.2869442   16.6445888
    C       16.2227795   16.6199032   16.6917770
    O       15.2728104   17.0948495   16.0954678
    C       17.1658479   17.3931132   17.5706542
    C       17.1910857   18.7608783   17.5598138
    C       16.1834858   19.6919416   16.9183744
    N       18.1778403   19.4518391   18.2735374
    C       19.2731767   18.8744462   18.8577493
    S       20.4421693   19.7705063   19.6072769
    N       19.3473037   17.5114022   18.8099220
    C       18.3811696   16.6632502   18.1591585
    C       17.7397175   15.7870897   19.3459377
    C       17.9022770   14.3752998   19.3619672
    C       17.3558820   13.5831938   20.3893341
    C       16.6259513   14.1953699   21.4218802
    C       16.4473919   15.5855720   21.4214371
    O       15.7432071   16.1801269   22.4178153
    C       16.9926969   16.3695087   20.3964300
    H       16.8971574   12.6594998   16.4100441
    H       15.2330510   12.2714065   15.9259289
    H       15.5491086   12.9887853   17.5244676
    H       16.0122354   14.4153069   14.8067181
    H       14.6500712   14.6891978   15.9270112
    H       16.1882673   19.5707670   15.8286213
    H       16.3743889   20.7493817   17.1359080
    H       15.1685517   19.4612093   17.2691117
    H       18.1330872   20.4560254   18.3411422
    H       20.1560571   17.1045432   19.2535489
    H       18.7509795   15.8804897   17.5258099
    H       18.4598309   13.8936095   18.5615655
    H       17.4985477   12.5034123   20.3826423
    H       16.2021244   13.5912578   22.2174341
    H       15.4710824   15.4860798   23.0365834
    H       16.8471193   17.4422836   20.4202380
*
