! ri-mp2 cc-pvtz cc-pvtz/c TightSCF  NoKeepInts

%scf
  MaxCore 4096
end
*xyz  0  1
    C       15.7181292   13.8471416   14.9207735
    C       15.0183098   15.0012970   15.6673901
    O       15.8350811   15.8247141   16.5333381
    C       17.1981423   15.8030118   16.6823266
    O       17.9118666   14.8461167   16.4366837
    C       17.5988822   16.8279451   17.6837707
    C       17.1766865   18.1172228   17.5854930
    C       16.3801787   18.7015610   16.4256460
    N       17.8491546   19.1165184   18.2984642
    C       18.8984781   18.9092756   19.1574526
    S       19.6673989   20.1846361   19.8806578
    N       19.2700422   17.6001610   19.3811993
    C       18.7374074   16.4389805   18.6243520
    C       17.9606583   15.9076056   19.8789929
    C       18.1343488   14.5203281   20.1396924
    C       17.4393130   13.8410795   21.1485902
    C       16.5262821   14.5413236   21.9400794
    C       16.3126038   15.9053258   21.7008954
    O       15.3995380   16.5553087   22.4648603
    C       17.0050196   16.5858027   20.6790612
    H       16.4221895   14.2681846   14.1876922
    H       14.9793736   13.2689630   14.3537203
    H       16.2613648   13.1640892   15.5810918
    H       14.3529408   15.5884520   15.0223801
    H       14.3629186   14.4797291   16.3781341
    H       15.3080158   18.5104647   16.5375968
    H       16.7017020   18.2688190   15.4675031
    H       16.5163524   19.7868502   16.3189008
    H       17.6467203   20.0851304   18.1002427
    H       20.0290161   17.4809571   20.0383812
    H       19.2926684   15.5161897   18.4392112
    H       18.8001387   13.9201579   19.5242923
    H       17.5998582   12.7730774   21.2970294
    H       15.9802704   14.0166852   22.7190325
    H       15.0767883   15.9168568   23.1217868
    H       16.7791584   17.6320319   20.5172794
*
