! ri-mp2 cc-pvtz cc-pvtz/c TightSCF  NoKeepInts

%scf
  MaxCore 4096
end
*xyz  0  1
    C       15.7251842   13.8516888   14.9246588
    C       15.0265459   15.0067865   15.6705710
    O       15.8407630   15.8285533   16.5409714
    C       17.2040927   15.8195604   16.6889164
    O       17.9236417   14.8673032   16.4384284
    C       17.5896203   16.8427596   17.7005737
    C       17.1340778   18.1236681   17.5709972
    C       16.3578462   18.7103586   16.4004006
    N       17.8652951   19.0872353   18.2864228
    C       18.9082033   18.8866897   19.1524086
    S       19.6686522   20.1692505   19.8722834
    N       19.2737773   17.5841736   19.3873815
    C       18.7275650   16.4332698   18.6356628
    C       17.9637670   15.9099246   19.8945418
    C       18.1384649   14.5229928   20.1487521
    C       17.4411150   13.8397664   21.1532559
    C       16.5259660   14.5376443   21.9452985
    C       16.3112549   15.9024646   21.7098079
    O       15.3944355   16.5501160   22.4712132
    C       17.0047476   16.5861606   20.6917565
    H       16.4269868   14.2713883   14.1887921
    H       14.9845933   13.2729632   14.3601318
    H       16.2699567   13.1697648   15.5847615
    H       14.3603075   15.5937096   15.0262809
    H       14.3704324   14.4841554   16.3799544
    H       15.2837976   18.5255261   16.5013094
    H       16.6885190   18.2758176   15.4461311
    H       16.5037980   19.7948304   16.2997493
    H       17.6722500   20.0609930   18.1036695
    H       20.0329829   17.4641649   20.0440207
    H       19.2977887   15.5259397   18.4140649
    H       18.8038479   13.9282523   19.5275144
    H       17.5999296   12.7708547   21.2969794
    H       15.9779727   14.0102835   22.7208687
    H       15.0724438   15.9115727   23.1281487
    H       16.7763748   17.6314111   20.5273147
*
