! ri-mp2 cc-pvtz cc-pvtz/c TightSCF  NoKeepInts

%scf
  MaxCore 4096
end
*xyz  0  1
    C       15.6474012   14.7051939   14.0811964
    C       15.1792911   14.7217927   15.5548976
    O       15.8506843   15.6828746   16.3984779
    C       17.0732903   15.4515220   16.9569425
    O       17.5097955   14.3205115   17.1030602
    C       17.5672305   16.5951258   17.7929560
    C       17.2987404   17.9074912   17.5271511
    C       16.4929676   18.4631228   16.3605432
    N       18.0709458   18.9133574   18.1265931
    C       19.0996710   18.7052831   19.0094036
    S       19.9829225   19.9738089   19.6087159
    N       19.3393122   17.3991860   19.3830401
    C       18.6739151   16.2087340   18.7828624
    C       17.8701573   15.8263293   20.0858527
    C       17.9174818   14.4507954   20.4694424
    C       17.1982895   13.9286121   21.5594920
    C       16.3781943   14.7767254   22.3088959
    C       16.2797104   16.1266325   21.9439398
    O       15.4659209   16.9375131   22.6686729
    C       17.0005153   16.6458195   20.8469009
    H       15.3988424   15.6731246   13.6239845
    H       15.0663041   13.9532670   13.5253517
    H       16.7128378   14.5032872   13.9343613
    H       14.1005704   14.8659455   15.6310811
    H       15.4070128   13.7205580   15.9527466
    H       16.7992473   18.0202358   15.4008716
    H       16.5956037   19.5507434   16.2412181
    H       15.4297512   18.2501934   16.5040194
    H       17.9303015   19.8762942   17.8545500
    H       20.1110039   17.2883077   20.0271707
    H       19.1324084   15.2221385   18.7063727
    H       18.5070338   13.7370170   19.8965713
    H       17.2708191   12.8693207   21.8148589
    H       15.8205149   14.3804349   23.1553138
    H       15.0980976   16.4119656   23.3981031
    H       16.8702136   17.6887354   20.5983930
*
