! ri-mp2 cc-pvtz cc-pvtz/c TightSCF  NoKeepInts

%scf
  MaxCore 4096
end
*xyz  0  1
    C       14.6384596   14.0868915   15.7861225
    C       16.1736902   14.0286482   15.9086164
    O       16.5707340   15.2628740   16.5265263
    C       17.8814628   15.5343307   16.7818229
    O       18.7997455   14.7694505   16.5371997
    C       18.0063254   16.7639357   17.6152281
    C       17.2899112   17.9085060   17.4671283
    C       16.2060614   18.2015634   16.4540641
    N       17.6826785   19.0633094   18.1678041
    C       18.7172173   19.1487529   19.0771905
    S       18.9795255   20.5187481   19.9667735
    N       19.3828054   17.9746523   19.3540762
    C       19.1221550   16.7115233   18.6407811
    C       18.1846412   16.2220234   19.7985998
    C       18.3259508   14.8450302   20.1040428
    C       17.4014025   14.1522091   20.8940334
    C       16.2923347   14.8295726   21.4106369
    C       16.1330197   16.1929407   21.1529089
    O       15.0362594   16.8433451   21.6167623
    C       17.0591200   16.8839003   20.3690562
    H       14.2089772   13.0912090   15.5868920
    H       14.3579867   14.7737997   14.9770024
    H       14.2016595   14.4767361   16.7158289
    H       16.4638034   13.1871811   16.5520604
    H       16.6382878   13.8753528   14.9279005
    H       16.2949515   17.5733479   15.5618599
    H       16.2291033   19.2390343   16.0964547
    H       15.2244442   18.0168376   16.9027605
    H       17.1501826   19.9067977   18.0457753
    H       20.0731317   18.0090141   20.0933146
    H       19.8281856   15.8756475   18.6630006
    H       19.1363263   14.2644343   19.6683672
    H       17.5335108   13.0863405   21.0702597
    H       15.5522535   14.2931844   21.9902038
    H       14.5378017   16.2161364   22.1610836
    H       16.8328999   17.9247353   20.1918588
*
