! ri-mp2 cc-pvtz cc-pvtz/c TightSCF NoKeepInts

%scf
  MaxCore 4096
end
*xyz  0  1
    C       14.5723601   14.4922693   15.5609549
    C       15.5784289   15.1125880   16.5438542
    O       16.8432022   15.2033513   15.8596474
    C       17.9564920   15.6801398   16.4992878
    O       19.0686871   15.2587590   16.2424018
    C       17.6984248   16.6900000   17.5700361
    C       17.3196186   17.9136060   17.1148739
    C       16.7620189   18.2558747   15.7448577
    N       17.5155193   19.0461094   17.9093803
    C       18.3947428   19.1076329   18.9560577
    S       18.7217391   20.5257917   19.7410334
    N       19.0091362   17.9305814   19.2985822
    C       18.6301595   16.5995549   18.7842441
    C       17.9534422   15.7880113   19.8810802
    C       18.3982711   14.4832959   20.1616713
    C       17.7699675   13.7112361   21.1531854
    C       16.6838661   14.2462020   21.8667597
    C       16.2330113   15.5428950   21.5846626
    O       15.1777237   16.0581048   22.2640361
    C       16.8596696   16.3089504   20.5966335
    H       14.9118652   13.5003295   15.2367021
    H       14.4582512   15.1251025   14.6720316
    H       13.5888494   14.3808097   16.0334996
    H       15.2149769   16.0958969   16.8655479
    H       15.6739426   14.4696894   17.4297993
    H       17.3213159   17.7529150   14.9450210
    H       16.8217824   19.3305305   15.5314951
    H       15.7100646   17.9622792   15.6553087
    H       17.1064035   19.9265695   17.6389051
    H       19.6547965   17.9988214   20.0750715
    H       19.5683078   16.1111825   18.4814686
    H       19.2328020   14.0639786   19.6040881
    H       18.1240362   12.7032995   21.3636239
    H       16.1951206   13.6528026   22.6325856
    H       14.9232262   15.4122991   22.9404327
    H       16.4947772   17.3105353   20.3951805
*
