! ri-mp2 cc-pvtz cc-pvtz/c TightSCF  NoKeepInts

%scf
  MaxCore 4096
end
*xyz  0  1
    C       14.8539964   13.9874592   15.9732525
    C       15.4953121   15.1637413   15.2107657
    O       16.2085224   15.9458011   16.1553931
    C       17.4337836   15.7255613   16.6914963
    O       18.1693527   14.7858347   16.4385751
    C       17.7276086   16.8432905   17.6335055
    C       17.1888408   18.0978524   17.5442018
    C       16.3849048   18.7424504   16.4097209
    N       17.7166593   19.1257115   18.3276472
    C       18.7435749   19.0068867   19.2255635
    S       19.2953617   20.3294935   20.0535053
    N       19.2816604   17.7491485   19.3887762
    C       18.8734336   16.5577045   18.6020761
    C       18.1127827   15.9176007   19.8111192
    C       18.5035493   14.5817739   20.1143655
    C       17.8082461   13.7671428   21.0130961
    C       16.6809350   14.2741835   21.6598299
    C       16.2619450   15.5833679   21.3891497
    O       15.1418518   16.0308676   22.0080508
    C       16.9522237   16.3994922   20.4691297
    H       15.5559185   13.4353335   16.6071737
    H       14.3535774   13.3013838   15.2812903
    H       14.0693075   14.3991503   16.6282586
    H       16.1907565   14.7788926   14.4547544
    H       14.7335498   15.7867188   14.7292045
    H       15.9865977   18.0841378   15.6391815
    H       17.0266200   19.4308241   15.8438367
    H       15.5311935   19.3091102   16.7930179
    H       17.4008968   20.0689354   18.1611565
    H       19.9558406   17.6711030   20.1389352
    H       19.4953265   15.6747127   18.4468414
    H       19.3408833   14.1129658   19.6021154
    H       18.1335638   12.7401092   21.1785571
    H       16.1321081   13.6403131   22.3498848
    H       14.8512432   15.3186409   22.6018583
    H       16.5550808   17.3843083   20.2587124
*
