! ri-mp2 cc-pvtz cc-pvtz/c TightSCF  NoKeepInts

%scf
  MaxCore 4096
end
*xyz  0  1
    C       16.0367132   12.9675895   16.1866333
    C       15.7389911   14.4219800   15.7782443
    O       16.1926659   15.2650742   16.8411556
    C       16.0524098   16.6207042   16.7453250
    O       15.2046865   17.1268648   16.0321363
    C       17.0323079   17.3479552   17.6217696
    C       16.9238383   18.7008054   17.7834287
    C       15.9626228   19.6518943   17.0953927
    N       18.0458643   19.3452851   18.3289162
    C       19.2029606   18.7792264   18.7899437
    S       20.3991838   19.7157549   19.4507534
    N       19.3034854   17.4137127   18.6848128
    C       18.2756730   16.5517053   18.0514560
    C       17.8647603   15.8923456   19.4051865
    C       17.9860787   14.4732209   19.4351805
    C       17.4541364   13.6841044   20.4620097
    C       16.7803044   14.3035388   21.5165313
    C       16.6355612   15.6982328   21.5178118
    O       15.9457945   16.2706415   22.5353563
    C       17.1537927   16.4901579   20.4728365
    H       17.1084947   12.7559963   16.0928184
    H       15.4894423   12.2666668   15.5446457
    H       15.7377913   12.7810110   17.2268327
    H       16.1577563   14.6816102   14.7993857
    H       14.6454930   14.5348784   15.7326516
    H       16.0109614   19.5214424   16.0036179
    H       16.1857192   20.7080036   17.2877870
    H       14.9295459   19.4552315   17.4001252
    H       18.0431744   20.3545519   18.3610675
    H       20.1299758   17.0203707   19.1161606
    H       18.4892992   15.6068474   17.5497476
    H       18.4472937   13.9362993   18.6096110
    H       17.5439060   12.5980844   20.4199542
    H       16.3596327   13.6952380   22.3123447
    H       15.7118591   15.5592685   23.1538018
    H       16.9648284   17.5557065   20.4885685
*
