! ri-mp2 cc-pvtz cc-pvtz/c TightSCF  NoKeepInts

%scf
  MaxCore 4096
end
*xyz  0  1
    C       14.7802440   14.0986813   16.4854718
    C       15.5116736   15.4270379   16.7150246
    O       16.8590494   15.0451548   16.3956735
    C       17.9900809   15.8034912   16.4106726
    O       19.0484954   15.2726152   16.1338293
    C       17.9320224   16.8509818   17.4549078
    C       17.3137067   18.0307741   17.1611178
    C       16.7407979   18.4584720   15.8166767
    N       17.6633696   19.1092675   17.9894051
    C       18.4888159   19.0952186   19.0828950
    S       18.7958519   20.4859722   19.9268279
    N       19.0247859   17.8809966   19.4379591
    C       18.8894589   16.6525975   18.6239910
    C       17.9962186   15.8940802   19.6543421
    C       18.3322972   14.5240873   19.8351458
    C       17.5858445   13.6596937   20.6480559
    C       16.4525141   14.1487237   21.3039053
    C       16.0781614   15.4880759   21.1261039
    O       14.9584459   15.9371572   21.7452678
    C       16.8261714   16.3537294   20.3049323
    H       15.4265570   13.2720539   16.8122415
    H       14.5847903   13.9575361   15.4141967
    H       13.8409936   14.0336053   17.0420815
    H       15.0554711   16.2578387   16.1568599
    H       15.4876670   15.6616462   17.7893972
    H       17.1510104   17.8725473   14.9820197
    H       16.9874895   19.5045184   15.5805952
    H       15.6511159   18.3724950   15.7963352
    H       17.3478421   20.0334817   17.7305024
    H       19.6232280   17.9012622   20.2521956
    H       19.6716788   15.8919378   18.5386828
    H       19.1816474   14.0901839   19.3103812
    H       17.8815454   12.6147594   20.7529931
    H       15.8673388   13.4816734   21.9311633
    H       14.6369813   15.2170814   22.3118833
    H       16.4836336   17.3725664   20.1802655
*
