! ri-mp2 cc-pvtz cc-pvtz/c TightSCF  NoKeepInts

%scf
  MaxCore 4096
end
*xyz  0  1
    C       15.8612970   13.4330134   15.6481218
    C       15.3590073   14.3910012   16.7511278
    O       16.1566693   15.5179527   17.1405009
    C       16.5776751   16.6393430   16.4828327
    O       16.0307726   17.1213529   15.5070282
    C       17.3715392   17.3598026   17.5278782
    C       17.3166796   18.6974621   17.7614806
    C       16.4858558   19.7142114   17.0021673
    N       18.3006612   19.3042654   18.5527625
    C       19.3491359   18.6535873   19.1526289
    S       20.4706937   19.4832178   20.0451865
    N       19.4183922   17.2876395   18.9766361
    C       18.4858467   16.4959343   18.1355780
    C       17.8639556   15.8217653   19.4026491
    C       18.0053687   14.4043785   19.4490988
    C       17.2735394   13.5935174   20.3247716
    C       16.3823668   14.1884134   21.2196141
    C       16.2250206   15.5812526   21.2122294
    O       15.3245005   16.1261953   22.0671039
    C       16.9365176   16.3945602   20.3068545
    H       15.0875836   12.6595958   15.5272782
    H       16.7557500   12.8914509   15.9897397
    H       16.0481394   13.8829260   14.6694342
    H       14.4381633   14.8350953   16.3562490
    H       15.1021577   13.8299959   17.6546800
    H       15.4175883   19.5947551   17.2096568
    H       16.6295760   19.5944157   15.9194586
    H       16.7631467   20.7518868   17.2324044
    H       18.3123230   20.3092949   18.6450554
    H       20.1608742   16.8351170   19.4929946
    H       18.7028117   15.5428784   17.6496978
    H       18.6349594   13.8851863   18.7305737
    H       17.3774018   12.5090276   20.2816636
    H       15.8059436   13.5630935   21.8956159
    H       14.9942446   15.4034555   22.6257848
    H       16.7208394   17.4549542   20.2874676
*
