! ri-mp2 cc-pvtz cc-pvtz/c TightSCF  NoKeepInts

%scf
  MaxCore 4096
end
*xyz  0  1
    C       14.5866327   14.4000780   16.8090603
    C       15.5859584   15.5576817   16.7499166
    O       16.9087910   14.9799154   16.6072842
    C       18.0624277   15.7243224   16.5209579
    O       19.1357789   15.2155182   16.2553621
    C       17.9546313   16.8308339   17.4949723
    C       17.4190837   17.9972659   17.0277212
    C       16.9299639   18.3192100   15.6220426
    N       17.6211312   19.1324883   17.8217044
    C       18.3046220   19.2105473   19.0049481
    S       18.3745983   20.6322447   19.8493122
    N       18.8944924   18.0541176   19.4531845
    C       18.8415579   16.7662054   18.7282314
    C       17.9987144   15.8500487   19.6625751
    C       18.4094622   14.4904514   19.7576575
    C       17.7082526   13.5426745   20.5164488
    C       16.5486883   13.9328242   21.1942225
    C       16.1039408   15.2588788   21.0936459
    O       14.9640646   15.6178016   21.7349755
    C       16.8107548   16.2096822   20.3340417
    H       14.9547891   13.6238387   17.4904393
    H       14.4585338   13.9623573   15.8121516
    H       13.6099049   14.7440880   17.1714465
    H       15.2997825   16.2990422   15.9942232
    H       15.5468240   16.0441678   17.7370363
    H       17.0388789   17.4813312   14.9209540
    H       17.5017216   19.1487982   15.1786946
    H       15.8764557   18.6172219   15.6338555
    H       17.2584530   20.0156992   17.4919641
    H       19.3340983   18.1233792   20.3606457
    H       19.6686318   16.0524868   18.7256741
    H       19.2855191   14.1368109   19.2145921
    H       18.0607994   12.5114828   20.5659141
    H       15.9993976   13.2015920   21.7807781
    H       14.6669599   14.8492311   22.2482450
    H       16.4227035   17.2176842   20.2691200
*
