! ri-mp2 cc-pvtz cc-pvtz/c TightSCF  NoKeepInts

%scf
  MaxCore 4096
end
*xyz  0  1
    C       14.6495870   14.6580532   15.6629096
    C       15.1130625   14.8890023   17.0877347
    O       16.2365359   15.7178394   17.2620933
    C       17.4804631   15.8467553   16.7260567
    O       18.0590766   15.2192322   15.8449790
    C       17.8169277   16.9786936   17.5951074
    C       17.1814810   18.1807580   17.5067183
    C       16.2951887   18.6721710   16.3785938
    N       17.6618086   19.1754180   18.3785034
    C       18.7250526   19.0739541   19.2411580
    S       18.9841022   20.2160164   20.4100739
    N       19.4512027   17.9048291   19.2083246
    C       19.0295737   16.7250606   18.4391578
    C       18.3482960   15.8718709   19.5460031
    C       18.6462113   14.4768011   19.4963475
    C       17.9468469   13.5199420   20.2337680
    C       16.9008548   13.9391335   21.0585358
    C       16.5727578   15.3023761   21.1248708
    O       15.5283004   15.6732550   21.9024699
    C       17.2711220   16.2635074   20.3751936
    H       13.5639523   14.8299065   15.6167460
    H       14.8884257   13.5956616   15.4941617
    H       15.1639036   15.3117732   14.9377757
    H       14.3391087   15.6053740   17.3662753
    H       15.0394081   14.0509570   17.8070958
    H       15.2894966   18.9591377   16.7115195
    H       16.1927930   17.9130261   15.5890230
    H       16.7457417   19.5518189   15.8866102
    H       17.1412429   20.0397680   18.4618006
    H       20.1013407   17.7925403   19.9710698
    H       19.6811374   15.8905209   18.1958008
    H       19.4012707   14.0813343   18.8149136
    H       18.2045618   12.4651738   20.1361655
    H       16.3455556   13.2012048   21.6230368
    H       15.2166340   14.8661275   22.3369177
    H       16.9339753   17.2930039   20.4064901
*
