! ri-mp2 cc-pvtz cc-pvtz/c TightSCF NoKeepInts

%scf
  MaxCore 4096
end
*xyz  0  1
    C       14.9639675   14.0119943   15.4262575
    C       15.8358325   15.1011562   14.7696478
    O       16.1894695   16.0841091   15.7616393
    C       17.1597578   15.8171647   16.6867084
    O       17.7999113   14.7773929   16.6673392
    C       17.3487172   16.8596231   17.7605436
    C       17.0886550   18.1719557   17.4925163
    C       16.2367120   18.7796434   16.3938707
    N       17.6649658   19.1688281   18.2864210
    C       18.7436644   18.9859994   19.1064118
    S       19.4887369   20.2506239   19.8685665
    N       19.1842837   17.6967265   19.2434063
    C       18.4664099   16.5034315   18.7556878
    C       17.8831510   15.7410706   19.9408167
    C       18.0801971   14.3517465   20.0414093
    C       17.5427965   13.6275383   21.1186900
    C       16.7969821   14.2974842   22.1033580
    C       16.5900157   15.6800108   22.0023768
    O       15.8623294   16.3276238   22.9470513
    C       17.1260604   16.3983140   20.9287974
    H       15.5298263   13.4551030   16.1836331
    H       14.6153235   13.2956428   14.6726330
    H       14.0850319   14.4571264   15.9086321
    H       16.7339313   14.6565009   14.3191399
    H       15.2586875   15.5849857   13.9713409
    H       15.2269754   18.3502839   16.4022053
    H       16.6801340   18.5941336   15.4076495
    H       16.1210954   19.8654777   16.4965744
    H       17.3692744   20.1255049   18.1765709
    H       19.9706947   17.5812061   19.8697566
    H       19.2241747   15.8885767   18.2488660
    H       18.6440242   13.8298526   19.2713688
    H       17.7011879   12.5525582   21.1836540
    H       16.3784439   13.7420861   22.9360084
    H       15.6047499   15.6734243   23.6135837
    H       16.9508288   17.4670990   20.8708652
*
