! ri-mp2 cc-pvtz cc-pvtz/c TightSCF NoKeepInts

%scf
  MaxCore 4096
end
*xyz  0  1
    C       14.3778212   14.8512655   15.5189760
    C       15.4362350   15.3758245   16.5025081
    O       16.6507415   15.5772838   15.7540361
    C       17.8024650   15.9834088   16.3743198
    O       18.8974236   15.6284849   15.9797390
    C       17.6130075   16.8232606   17.5958243
    C       17.1902004   18.0917377   17.3498479
    C       16.5382570   18.6177636   16.0833748
    N       17.4325346   19.1028459   18.2831150
    C       18.3854422   19.0322734   19.2624451
    S       18.7552962   20.3300747   20.2182878
    N       19.0357476   17.8315312   19.3866853
    C       18.6345034   16.5805004   18.7134788
    C       18.0616072   15.6013634   19.7298868
    C       18.5586096   14.2865911   19.7893123
    C       18.0352012   13.3647853   20.7112093
    C       17.0019914   13.7591934   21.5782164
    C       16.4983604   15.0656830   21.5164066
    O       15.4955990   15.4464089   22.3470415
    C       17.0203983   15.9812063   20.5966404
    H       13.4271626   14.6691357   16.0348037
    H       14.7081967   13.9083274   15.0649251
    H       14.2010046   15.5772180   14.7154926
    H       15.0792184   16.3054130   16.9615431
    H       15.6003527   14.6352660   17.2974248
    H       15.4826885   18.3296207   16.0250356
    H       17.0410405   18.2391379   15.1836627
    H       16.5831357   19.7123790   16.0202642
    H       16.9963243   20.0045960   18.1717329
    H       19.7348954   17.8009269   20.1178861
    H       19.5526062   16.1635415   18.2736999
    H       19.3537610   13.9772280   19.1145765
    H       18.4303720   12.3509506   20.7508182
    H       16.5953387   13.0503688   22.2920375
    H       15.3212214   14.7080311   22.9503922
    H       16.6182363   16.9883729   20.5683543
*
