! ri-mp2 cc-pvtz cc-pvtz/c TightSCF  NoKeepInts

%scf
  MaxCore 4096
end
*xyz  0  1
    C       16.0344477   12.9642252   16.1850069
    C       15.7312469   14.4164945   15.7739827
    O       16.1799698   15.2599810   16.8374801
    C       16.0352981   16.6141818   16.7419373
    O       15.1829117   17.1219650   16.0354491
    C       17.0281628   17.3380191   17.6030728
    C       16.9615482   18.6852912   17.7872435
    C       15.9878558   19.6339036   17.1096926
    N       18.0429294   19.3757833   18.3444147
    C       19.2016066   18.8026248   18.7968733
    S       20.4047130   19.7292433   19.4587627
    N       19.3006494   17.4317721   18.6808087
    C       18.2784599   16.5587717   18.0389805
    C       17.8565166   15.8923501   19.3909877
    C       17.9805296   14.4718909   19.4293677
    C       17.4518741   13.6854414   20.4595773
    C       16.7793407   14.3067090   21.5131035
    C       16.6344945   15.7011601   21.5106570
    O       15.9487941   16.2745518   22.5304703
    C       17.1496805   16.4911241   20.4618724
    H       17.1070348   12.7563638   16.0914355
    H       15.4892339   12.2602866   15.5447934
    H       15.7368070   12.7791988   17.2258798
    H       16.1511662   14.6772865   14.7958447
    H       14.6375990   14.5263194   15.7272254
    H       16.0291532   19.5060516   16.0173500
    H       16.2015386   20.6926659   17.2995816
    H       14.9572261   19.4311633   17.4196212
    H       18.0254387   20.3849522   18.3663561
    H       20.1270359   17.0381473   19.1121399
    H       18.4850485   15.5957894   17.5733205
    H       18.4443633   13.9287183   18.6092718
    H       17.5446469   12.5995309   20.4212681
    H       16.3614606   13.6999494   22.3116529
    H       15.7147397   15.5629692   23.1489424
    H       16.9634823   17.5571241   20.4795762
*
