! ri-mp2 cc-pvtz cc-pvtz/c TightSCF  NoKeepInts

%scf
  MaxCore 4096
end
*xyz  0  1
    C       15.6002628   13.1430417   16.6751598
    C       15.9227132   14.3539463   15.7708054
    O       16.6493539   15.2833771   16.5953995
    C       16.3096316   16.6092389   16.6426425
    O       15.3412664   17.0552968   16.0504709
    C       17.2010860   17.4038747   17.5693070
    C       17.1516826   18.7761178   17.5603626
    C       16.1366489   19.6745439   16.9156794
    N       18.1126440   19.4712464   18.3184120
    C       19.2132363   18.9345720   18.9240114
    S       20.3258473   19.8646161   19.7168240
    N       19.3407870   17.5793400   18.8556555
    C       18.4223621   16.7051320   18.1701799
    C       17.7889556   15.7859007   19.3183655
    C       18.0149808   14.3823303   19.3207875
    C       17.4716883   13.5484284   20.3174581
    C       16.6790135   14.1090739   21.3327119
    C       16.4353496   15.4893053   21.3455721
    O       15.6703976   16.0343992   22.3256151
    C       16.9780958   16.3143703   20.3507887
    H       16.5329216   12.6700987   17.0192016
    H       15.0241289   12.3900009   16.1235299
    H       15.0244582   13.4429052   17.5579395
    H       16.4973213   14.0491604   14.9015400
    H       14.9608792   14.7801319   15.4338871
    H       16.1707042   19.5627105   15.8276282
    H       16.2919001   20.7321137   17.1516778
    H       15.1282022   19.4013889   17.2477464
    H       18.0290659   20.4783525   18.3991689
    H       20.1486634   17.1953362   19.3180760
    H       18.8376783   15.9462576   17.5276668
    H       18.6211992   13.9385785   18.5340302
    H       17.6653960   12.4763794   20.3006686
    H       16.2574147   13.4732958   22.1044964
    H       15.4109306   15.3188505   22.9250247
    H       16.7801321   17.3782836   20.3855107
*
