! ri-mp2 cc-pvtz cc-pvtz/c TightSCF NoKeepInts

%scf
  MaxCore 4096
end
*xyz  0  1
    C       16.4762090   14.1615349   14.6003522
    C       15.6790435   14.1089819   15.9190597
    O       16.2808347   15.0070188   16.8702641
    C       16.0850680   16.3591055   16.7701969
    O       15.3521136   16.8440758   15.9243069
    C       16.8422779   17.1223476   17.8279451
    C       16.9071132   18.4768116   17.7023194
    C       15.9705706   19.3955766   16.9435659
    N       17.9274902   19.1916484   18.3357500
    C       19.0762010   18.6354615   18.8263330
    S       20.3227208   19.5574061   19.4022195
    N       19.1485339   17.2679070   18.7898828
    C       18.0264977   16.3675608   18.4624056
    C       17.5871868   15.6559785   19.7372197
    C       17.6342818   14.2516888   19.8139854
    C       17.2292405   13.5850215   20.9826797
    C       16.7720928   14.3284935   22.0841435
    C       16.7216117   15.7273008   22.0107521
    O       16.2775526   16.4475046   23.0715443
    C       17.1256998   16.3879359   20.8464550
    H       16.4048323   15.1522138   14.1341932
    H       16.0838319   13.4259430   13.8878048
    H       17.5350500   13.9361744   14.7770938
    H       14.6261529   14.3702088   15.7444662
    H       15.7140196   13.0864370   16.3161815
    H       14.9252379   19.0992148   17.0985074
    H       16.1704848   19.3480357   15.8654653
    H       16.0567087   20.4432583   17.2548016
    H       17.9012277   20.1987919   18.3377044
    H       19.9974580   16.8821280   19.1830110
    H       18.4301106   15.6458907   17.7385822
    H       17.9803993   13.6745156   18.9607235
    H       17.2682845   12.4982788   21.0314717
    H       16.4573043   13.8182257   22.9884212
    H       16.0711998   15.8221068   23.7821444
    H       17.0823603   17.4712116   20.8120439
*
