! ri-mp2 cc-pvtz cc-pvtz/c TightSCF NoKeepInts

%scf
  MaxCore 4096
end
*xyz  0  1
    C       14.4481816   15.2416878   14.2716772
    C       15.6960346   14.7870274   15.0470718
    O       15.9750868   15.7880832   16.0392492
    C       17.0510709   15.6219010   16.8619439
    O       17.7697253   14.6377772   16.7819406
    C       17.2544507   16.6907325   17.9066492
    C       16.8452940   17.9694917   17.6631153
    C       15.8255682   18.4800707   16.6620913
    N       17.4086270   19.0265397   18.3851659
    C       18.5825208   18.9558352   19.0825885
    S       19.2851618   20.2947009   19.7526489
    N       19.1538372   17.7148088   19.1758276
    C       18.5015497   16.4533072   18.7753779
    C       18.1247601   15.6592394   20.0217181
    C       18.4669053   14.2975984   20.1112944
    C       18.1211481   13.5446679   21.2459325
    C       17.4225286   14.1572448   22.3001285
    C       17.0713801   15.5112042   22.2113587
    O       16.3888056   16.1026670   23.2240808
    C       17.4168076   16.2582041   21.0806324
    H       13.5900000   15.3459856   14.9472120
    H       14.1887419   14.5089327   13.4978300
    H       14.6260848   16.2081042   13.7839450
    H       15.5082529   13.8161410   15.5256022
    H       16.5467916   14.6803825   14.3603593
    H       14.8694965   17.9541315   16.7778597
    H       16.1771453   18.3283918   15.6339346
    H       15.6153081   19.5503288   16.7771097
    H       17.0147403   19.9501572   18.3043287
    H       20.0108404   17.6815240   19.7130149
    H       19.2536134   15.9034286   18.1912653
    H       18.9939098   13.8186246   19.2890867
    H       18.3901353   12.4913748   21.3017732
    H       17.1516716   13.5792700   23.1773590
    H       16.2680845   15.4385366   23.9190298
    H       17.1327388   17.3038909   21.0337940
*
