! ri-mp2 cc-pvtz cc-pvtz/c TightSCF  NoKeepInts

%scf
  MaxCore 4096
end
*xyz  0  1
    C       14.2531866   14.8362429   16.4848732
    C       15.4465554   15.6044992   17.0729909
    O       16.6064026   15.3203791   16.2374469
    C       17.8663238   15.8414636   16.4624613
    O       18.8654948   15.2383933   16.1153432
    C       17.8158886   16.9302878   17.4761853
    C       17.3431039   18.1740437   17.1898313
    C       16.6367472   18.6254428   15.9237849
    N       17.5611830   19.2331686   18.0833619
    C       18.3472052   19.1702250   19.2071554
    S       18.5564044   20.4589049   20.2098952
    N       18.9752358   17.9863523   19.4533473
    C       18.8286765   16.8132192   18.6060787
    C       18.1521045   15.6710887   19.4921658
    C       18.5563833   14.3055369   19.3667341
    C       17.9601340   13.2635983   20.1164851
    C       16.9217625   13.5614256   21.0141991
    C       16.4877656   14.8864337   21.1497784
    O       15.4716817   15.1787770   22.0054940
    C       17.0871262   15.9159516   20.3980125
    H       13.3346180   15.0495153   17.0445054
    H       14.4539549   13.7568282   16.5839307
    H       14.0922891   15.0584901   15.4274041
    H       15.1983430   16.6800343   16.9686547
    H       15.5864405   15.3889623   18.1328608
    H       16.5581357   17.8226474   15.1813395
    H       17.1601670   19.4595192   15.4345180
    H       15.6202041   18.9608728   16.1617416
    H       17.1326559   20.1305523   17.9166159
    H       19.5340382   17.9276656   20.2912471
    H       19.6852819   16.1742942   18.3744022
    H       19.3459741   14.0436306   18.6641677
    H       18.2998427   12.2313222   19.9959017
    H       16.4565807   12.7675719   21.5920521
    H       15.2326531   14.3607695   22.4688365
    H       16.7164568   16.9238933   20.5301991
*
