! ri-mp2 cc-pvtz cc-pvtz/c TightSCF  NoKeepInts

%scf
  MaxCore 4096
end
*xyz  0  1
    C       15.2364710   13.9444346   14.8768157
    C       16.3634721   13.7578471   15.9078843
    O       16.5504247   14.9740605   16.6511681
    C       17.8232819   15.3057505   17.0220237
    O       18.7717326   14.5468404   16.8812176
    C       17.9498831   16.5773082   17.7896552
    C       17.2701273   17.7235570   17.5128797
    C       16.1338324   17.9014745   16.5277442
    N       17.7407291   18.9371274   18.0520296
    C       18.8277320   19.0677253   18.8980369
    S       19.3975867   20.5490720   19.3661980
    N       19.3336718   17.9026178   19.4400767
    C       19.0414780   16.5841632   18.8546332
    C       18.0203678   16.2830887   20.0326039
    C       17.9333101   14.9221919   20.4169367
    C       16.9126260   14.4521720   21.2707619
    C       15.9343039   15.3348115   21.7446068
    C       16.0111926   16.6871595   21.4122949
    O       15.0421179   17.5554407   21.8028756
    C       17.0408564   17.1570995   20.5871960
    H       15.3646589   14.8710222   14.3052004
    H       14.2694197   13.9750459   15.3960228
    H       15.2103259   13.0980557   14.1782773
    H       16.1981077   12.8986496   16.5722018
    H       17.2677563   13.5671902   15.3107722
    H       16.1554234   17.1514964   15.7303458
    H       16.1539386   18.8791859   16.0360692
    H       15.1738350   17.8010266   17.0528062
    H       17.3072852   19.8028616   17.7719134
    H       20.0942365   18.0189203   20.1032541
    H       19.7274040   15.7269853   18.9747181
    H       18.6227859   14.1883092   20.0036778
    H       16.8602583   13.3927032   21.5177512
    H       15.1271530   14.9698646   22.3704746
    H       14.2818057   17.0359092   22.1018462
    H       16.9974080   18.2108285   20.3610269
*
