! ri-mp2 cc-pvtz cc-pvtz/c TightSCF  NoKeepInts

%scf
  MaxCore 4096
end
*xyz  0  1
    C       15.2208446   13.6306223   16.0469860
    C       15.0074561   15.0512168   16.5654172
    O       16.1571284   15.7950196   16.9535458
    C       17.4243358   15.9600917   16.4600977
    O       18.0918921   15.2038830   15.7781276
    C       17.8866053   16.8883858   17.5014641
    C       17.3883134   18.1440930   17.3978737
    C       16.6534543   18.6476306   16.1586810
    N       17.8898091   19.1675803   18.1960351
    C       18.8687998   19.0075034   19.1431631
    S       19.3023740   20.2776393   20.1108370
    N       19.4018735   17.7377796   19.2890538
    C       18.9878881   16.5500090   18.4878560
    C       18.1280422   15.9797972   19.6642485
    C       18.3894515   14.6181671   19.9795579
    C       17.5610048   13.8592735   20.8132693
    C       16.4315426   14.4530943   21.3801374
    C       16.1472280   15.7959396   21.1050621
    O       15.0238550   16.3358089   21.6380585
    C       16.9701960   16.5546417   20.2528308
    H       16.2332468   13.2548673   16.2182998
    H       15.0455624   13.6671990   14.9627932
    H       14.4806451   12.9430750   16.4707359
    H       14.2855034   15.6477224   15.9993935
    H       14.5299908   14.8907480   17.5439794
    H       17.0679364   18.1903918   15.2455004
    H       16.7669189   19.7268823   16.0070480
    H       15.5856463   18.4057189   16.1869414
    H       17.5363216   20.1044007   18.0765565
    H       20.0189820   17.6347016   20.0831162
    H       19.5834402   15.6432379   18.3576892
    H       19.2219478   14.0912659   19.5204313
    H       17.7826388   12.8070914   20.9859875
    H       15.7753832   13.8616300   22.0117464
    H       14.6341141   15.6562967   22.2122435
    H       16.6666220   17.5685924   20.0292415
*
