! ri-mp2 cc-pvtz cc-pvtz/c TightSCF  NoKeepInts

%scf
  MaxCore 4096
end
*xyz  0  1
    C       14.7160966   14.6125768   15.6546706
    C       14.9483189   14.9828834   17.1295562
    O       16.1386420   15.7535129   17.2678293
    C       17.4101383   15.8074891   16.7058387
    O       17.9982560   15.1082972   15.9070353
    C       17.8178561   16.9395032   17.5540934
    C       17.1959913   18.1579608   17.5569817
    C       16.2885308   18.6813000   16.4378306
    N       17.6330357   19.1468173   18.4322929
    C       18.7276605   19.0351985   19.2702461
    S       18.9527957   20.1081910   20.5100446
    N       19.5102550   17.8898118   19.1273576
    C       19.0658467   16.7071426   18.3595552
    C       18.3889918   15.8843360   19.4955214
    C       18.6589598   14.4838188   19.4704088
    C       17.9278278   13.5569214   20.2196756
    C       16.8986296   14.0089143   21.0336935
    C       16.6093997   15.3751442   21.1032021
    O       15.5667901   15.7656570   21.8657258
    C       17.3357366   16.3141208   20.3395209
    H       13.6691231   14.6696348   15.3097358
    H       15.0334708   13.5609657   15.5568566
    H       15.3949918   15.1902893   15.0083311
    H       14.1500151   15.6810938   17.4832526
    H       14.8971525   14.1386307   17.8296262
    H       15.2946757   18.9730899   16.7904712
    H       16.1555172   17.9485357   15.6337433
    H       16.7317129   19.5641612   15.9470959
    H       17.0528325   19.9647050   18.5865581
    H       20.1555063   17.7473899   19.8972802
    H       19.7040586   15.8462053   18.1589159
    H       19.4121099   14.0559115   18.8069039
    H       18.1472406   12.4947067   20.1249796
    H       16.3036297   13.2896237   21.5912063
    H       15.2235552   14.9584465   22.2857714
    H       17.0316481   17.3490110   20.3821933
*
