! ri-mp2 cc-pvtz cc-pvtz/c TightSCF  NoKeepInts

%scf
  MaxCore 4096
end
*xyz  0  1
    C       15.2121968   13.6844180   14.9615261
    C       16.4995332   13.8378571   15.7748177
    O       16.6089664   15.1511292   16.3640953
    C       17.7474117   15.3307332   17.1008893
    O       18.5711770   14.4378014   17.2385544
    C       17.9169530   16.6404789   17.8047545
    C       17.2824430   17.8156273   17.5452440
    C       16.1325349   18.0863229   16.6001162
    N       17.8075059   19.0057465   18.0889998
    C       18.8956476   19.1014464   18.9321921
    S       19.4826001   20.5621807   19.4420909
    N       19.3798979   17.9166175   19.4367100
    C       19.0244006   16.6118027   18.8555979
    C       18.0134935   16.3130445   20.0216834
    C       17.9203294   14.9388994   20.3629865
    C       16.8646655   14.4209189   21.1276485
    C       15.8607900   15.2799634   21.5899695
    C       15.9541606   16.6504194   21.3261018
    O       14.9702926   17.4820600   21.7507864
    C       17.0104184   17.1655471   20.5654576
    H       14.9950112   14.5699289   14.3512768
    H       14.3738339   13.5011758   15.6439604
    H       15.3227967   12.8135274   14.3002094
    H       16.4955738   13.0787893   16.5663660
    H       17.3723278   13.6386561   15.1405506
    H       16.2144724   17.5220502   15.6647471
    H       16.0656190   19.1488388   16.3307237
    H       15.1873984   17.8117871   17.0853187
    H       17.4000681   19.8873669   17.8240660
    H       20.1483191   17.9948415   20.0897837
    H       19.6733146   15.7367466   18.9839964
    H       18.6360930   14.2264886   19.9561143
    H       16.8102383   13.3497584   21.3204777
    H       15.0201364   14.8803885   22.1476377
    H       14.2944834   16.9318200   22.1738708
    H       16.9818971   18.2268214   20.3646763
*
