! ri-mp2 cc-pvtz cc-pvtz/c TightSCF NoKeepInts

%scf
  MaxCore 4096
end
*xyz  0  1
    C       16.2637283   14.6584640   14.0393097
    C       15.2634897   14.7220974   15.2110328
    O       15.6970554   15.7267559   16.1476869
    C       16.7385169   15.4780895   16.9975247
    O       17.2707619   14.3809649   17.0626423
    C       17.1270381   16.6187184   17.9038605
    C       16.9963099   17.9047902   17.4675504
    C       16.1428571   18.4556689   16.3404207
    N       17.7413864   18.9215386   18.0734513
    C       18.8562606   18.7200109   18.8388370
    S       19.7976197   19.9749000   19.3626408
    N       19.1605085   17.4165110   19.1278664
    C       18.2759610   16.2653278   18.8638788
    C       17.7114291   15.7445837   20.1813538
    C       17.7589407   14.3673037   20.4641634
    C       17.2358341   13.8639960   21.6670273
    C       16.6551864   14.7451590   22.5949592
    C       16.5970674   16.1169241   22.3133558
    O       16.0286021   16.9685857   23.2037837
    C       17.1185316   16.6151120   21.1151177
    H       16.3778664   15.6441277   13.5718168
    H       15.9112190   13.9556825   13.2746907
    H       17.2500134   14.3184105   14.3791176
    H       14.2746480   14.9948671   14.8207420
    H       15.1777992   13.7412971   15.6989594
    H       15.0900029   18.1797449   16.4794590
    H       16.4747420   18.0632040   15.3711583
    H       16.1795052   19.5498618   16.2744672
    H       17.5457726   19.8837548   17.8484754
    H       19.9778398   17.2907037   19.7111747
    H       18.9162058   15.5004937   18.4010955
    H       18.1942031   13.6826003   19.7396119
    H       17.2772894   12.7958947   21.8728046
    H       16.2481644   14.3607834   23.5242274
    H       15.7543881   16.4449456   23.9713750
    H       17.0602550   17.6801284   20.9183620
*
