! ri-mp2 cc-pvtz cc-pvtz/c TightSCF  NoKeepInts

%scf
  MaxCore 4096
end
*xyz  0  1
    C       14.5866759   14.4013152   16.8096350
    C       15.5868213   15.5582779   16.7480546
    O       16.9061987   14.9753058   16.5935084
    C       18.0665772   15.7085667   16.5008931
    O       19.1354349   15.1852628   16.2465698
    C       17.9748808   16.8161271   17.4729755
    C       17.4275286   17.9932478   17.0626323
    C       16.9358556   18.3160187   15.6530577
    N       17.6001889   19.1533398   17.8185850
    C       18.2926844   19.2225477   18.9992061
    S       18.3742373   20.6388205   19.8517891
    N       18.8818286   18.0566692   19.4437140
    C       18.8566866   16.7644443   18.7103510
    C       17.9988179   15.8556208   19.6496206
    C       18.4061051   14.4929671   19.7523496
    C       17.7073795   13.5461678   20.5143302
    C       16.5490861   13.9364931   21.1922025
    C       16.1058219   15.2628730   21.0896467
    O       14.9665559   15.6203434   21.7335368
    C       16.8116748   16.2141369   20.3264851
    H       14.9558297   13.6253090   17.4908239
    H       14.4577796   13.9627061   15.8131856
    H       13.6102481   14.7450291   17.1729663
    H       15.2956421   16.3026631   15.9971861
    H       15.5560931   16.0411535   17.7372746
    H       17.0448623   17.4812275   14.9480138
    H       17.5073647   19.1437369   15.2047007
    H       15.8822847   18.6145288   15.6577197
    H       17.2411611   20.0316917   17.4722445
    H       19.3239813   18.1263020   20.3500996
    H       19.6653211   16.0333721   18.7506763
    H       19.2820187   14.1330499   19.2129701
    H       18.0610557   12.5151849   20.5656429
    H       16.0006345   13.2051419   21.7800533
    H       14.6694337   14.8508245   22.2461484
    H       16.4222499   17.2215353   20.2651499
*
