! ri-mp2 cc-pvtz cc-pvtz/c TightSCF  NoKeepInts

%scf
  MaxCore 4096
end
*xyz  0  1
    C       14.6972189   14.1505652   16.3460708
    C       15.5854844   15.3512640   16.7054223
    O       16.9217071   14.9955071   16.2858465
    C       18.0431316   15.7760578   16.4129632
    O       19.1220289   15.3872510   16.0033249
    C       17.9588280   16.8076589   17.4718213
    C       17.2807617   17.9589351   17.1998279
    C       16.7149305   18.3785446   15.8478529
    N       17.6089076   19.0447394   18.0274288
    C       18.4545437   19.0570299   19.1068849
    S       18.7631384   20.4618019   19.9246687
    N       19.0226666   17.8582767   19.4614645
    C       18.9193531   16.6362897   18.6385302
    C       18.0201365   15.9198995   19.6835574
    C       18.3637821   14.5615387   19.9000577
    C       17.6112024   13.7127279   20.7193123
    C       16.4681381   14.2099992   21.3516408
    C       16.0885822   15.5429272   21.1452140
    O       14.9589505   15.9943603   21.7435302
    C       16.8382608   16.3926450   20.3118304
    H       15.2459324   13.2076281   16.4571346
    H       14.3943810   14.2407182   15.2941118
    H       13.7890767   14.1092413   16.9586218
    H       15.1852906   16.2864171   16.3064405
    H       15.5896999   15.4195967   17.8054220
    H       17.1255536   17.7788856   15.0233602
    H       16.9817372   19.4163347   15.6048818
    H       15.6234053   18.3132170   15.8079393
    H       17.2822036   19.9615339   17.7590565
    H       19.6248697   17.8882487   20.2727708
    H       19.7241171   15.8959138   18.5536209
    H       19.2232273   14.1254803   19.3951541
    H       17.9107386   12.6723574   20.8448760
    H       15.8782519   13.5529455   21.9833782
    H       14.6385917   15.2785820   22.3163587
    H       16.4881736   17.4068804   20.1636201
*
