! ri-mp2 cc-pvtz cc-pvtz/c TightSCF  NoKeepInts

%scf
  MaxCore 4096
end
*xyz  0  1
    C       15.6531073   14.7068520   14.0867767
    C       15.1783596   14.7270769   15.5592423
    O       15.8491333   15.6816299   16.4145841
    C       17.0843775   15.4648334   16.9556730
    O       17.5371301   14.3377417   17.0810301
    C       17.5633905   16.6073872   17.8078406
    C       17.2641393   17.9113438   17.5124198
    C       16.4743269   18.4684467   16.3419396
    N       18.0754880   18.8815447   18.1300243
    C       19.1021521   18.6834558   19.0141250
    S       19.9777821   19.9613171   19.6055822
    N       19.3434966   17.3848879   19.3912409
    C       18.6696825   16.2038736   18.7934340
    C       17.8744467   15.8304546   20.0977156
    C       17.9210913   14.4547615   20.4741231
    C       17.1994340   13.9309698   21.5610071
    C       16.3786846   14.7792665   22.3099633
    C       16.2797008   16.1299187   21.9468774
    O       15.4634575   16.9394344   22.6693603
    C       17.0020294   16.6506072   20.8527997
    H       15.4063192   15.6726595   13.6241421
    H       15.0737790   13.9537393   13.5303859
    H       16.7185596   14.5028130   13.9431689
    H       14.0984547   14.8713225   15.6271371
    H       15.4004475   13.7243719   15.9559948
    H       16.7883859   18.0230581   15.3862101
    H       16.5866827   19.5556725   16.2305819
    H       15.4109692   18.2578404   16.4835289
    H       17.9433995   19.8494108   17.8697301
    H       20.1157198   17.2756493   20.0347964
    H       19.1458726   15.2279266   18.6802390
    H       18.5093700   13.7439962   19.8963351
    H       17.2703430   12.8709348   21.8131561
    H       15.8195212   14.3819057   23.1544057
    H       15.0976007   16.4122660   23.3981963
    H       16.8701648   17.6926297   20.6002368
*
