! ri-mp2 cc-pvtz cc-pvtz/c TightSCF  NoKeepInts

%scf
  MaxCore 4096
end
*xyz  0  1
    C       14.2534933   14.8354427   16.4855548
    C       15.4449447   15.6072667   17.0729572
    O       16.6047782   15.3171940   16.2445805
    C       17.8658469   15.8417000   16.4731492
    O       18.8591604   15.2369766   16.1183805
    C       17.8222381   16.9464744   17.4815350
    C       17.3464758   18.1851928   17.1566312
    C       16.6312582   18.6291784   15.9125103
    N       17.5647275   19.2187607   18.0880500
    C       18.3511884   19.1627845   19.2087972
    S       18.5565905   20.4575431   20.2090050
    N       18.9721304   17.9789260   19.4572199
    C       18.8213617   16.8094054   18.6226288
    C       18.1477390   15.6597008   19.4959065
    C       18.5562816   14.3001436   19.3675446
    C       17.9598899   13.2615077   20.1171945
    C       16.9215301   13.5610306   21.0144769
    C       16.4866306   14.8856447   21.1510196
    O       15.4713762   15.1787623   22.0058338
    C       17.0848140   15.9131972   20.4001940
    H       13.3347861   15.0490048   17.0448032
    H       14.4546922   13.7555919   16.5845863
    H       14.0921801   15.0576122   15.4285275
    H       15.1981347   16.6833282   16.9669934
    H       15.5853140   15.3910009   18.1308635
    H       16.5570293   17.8218927   15.1785376
    H       17.1596503   19.4609358   15.4323100
    H       15.6181288   18.9616342   16.1613142
    H       17.1381318   20.1219700   17.9216316
    H       19.5342487   17.9267526   20.2905721
    H       19.7002335   16.2090212   18.3597695
    H       19.3461421   14.0438381   18.6640194
    H       18.2998923   12.2307620   19.9960150
    H       16.4565245   12.7674919   21.5921162
    H       15.2326280   14.3607577   22.4688619
    H       16.7168295   16.9235772   20.5299105
*
