! ri-mp2 cc-pvtz cc-pvtz/c TightSCF  NoKeepInts

%scf
  MaxCore 4096
end
*xyz  0  1
    C       15.6005507   13.1424988   16.6754967
    C       15.9214649   14.3539707   15.7717515
    O       16.6500515   15.2833852   16.5940462
    C       16.3064893   16.6073124   16.6405914
    O       15.3399940   17.0551954   16.0500049
    C       17.1947227   17.3992184   17.5589865
    C       17.1679496   18.7670843   17.5705042
    C       16.1417418   19.6707208   16.9191348
    N       18.1112790   19.4831556   18.3175459
    C       19.2114451   18.9376146   18.9229545
    S       20.3259086   19.8643782   19.7167580
    N       19.3380999   17.5794165   18.8568695
    C       18.4225791   16.7071622   18.1663586
    C       17.7861937   15.7836464   19.3188212
    C       18.0147253   14.3809714   19.3210023
    C       17.4717156   13.5480430   20.3175890
    C       16.6789739   14.1090175   21.3327338
    C       16.4352503   15.4892126   21.3458273
    O       15.6704079   16.0344227   22.3256423
    C       16.9774389   16.3138005   20.3513470
    H       16.5333697   12.6699424   17.0192611
    H       15.0242182   12.3899105   16.1235080
    H       15.0246433   13.4426355   17.5578415
    H       16.4963001   14.0493827   14.9026116
    H       14.9600900   14.7803866   15.4340214
    H       16.1711442   19.5623798   15.8284706
    H       16.2919387   20.7315335   17.1516718
    H       15.1289063   19.4012652   17.2478145
    H       18.0273000   20.4838180   18.3986892
    H       20.1483808   17.1954553   19.3176461
    H       18.8384086   15.9500247   17.5290354
    H       18.6213184   13.9385088   18.5338561
    H       17.6654135   12.4763137   20.3007192
    H       16.2574094   13.4732896   22.1045081
    H       15.4109284   15.3188569   22.9250267
    H       16.7802484   17.3780656   20.3853548
*
