! ri-mp2 cc-pvtz cc-pvtz/c TightSCF  NoKeepInts

%scf
  MaxCore 4096
end
*xyz  0  1
    C       15.8666635   13.4386853   15.6499851
    C       15.3647952   14.3958370   16.7544194
    O       16.1583219   15.5258326   17.1485130
    C       16.5954448   16.6435546   16.4927723
    O       16.0638858   17.1225616   15.5071093
    C       17.3721712   17.3692308   17.5489309
    C       17.2802717   18.7150402   17.7518101
    C       16.4634184   19.7342689   16.9839499
    N       18.3040967   19.2749711   18.5369580
    C       19.3509320   18.6308969   19.1437921
    S       20.4671099   19.4703049   20.0341580
    N       19.4194249   17.2694890   18.9798153
    C       18.4794512   16.4883139   18.1481369
    C       17.8692328   15.8211497   19.4192218
    C       18.0090640   14.4050066   19.4564904
    C       17.2750490   13.5913925   20.3279715
    C       16.3826886   14.1841177   21.2238227
    C       16.2250020   15.5771502   21.2208158
    O       15.3204337   16.1205632   22.0723356
    C       16.9389545   16.3927369   20.3202653
    H       15.0919999   12.6661168   15.5283854
    H       16.7602262   12.8948674   15.9902429
    H       16.0527794   13.8889425   14.6713291
    H       14.4447273   14.8395527   16.3572923
    H       15.1037778   13.8326880   17.6555934
    H       15.3933910   19.6231749   17.1859057
    H       16.6139972   19.6111592   15.9025915
    H       16.7502542   20.7683517   17.2177962
    H       18.3300807   20.2789228   18.6398715
    H       20.1613972   16.8168732   19.4968590
    H       18.7104076   15.5540870   17.6301871
    H       18.6363363   13.8918270   18.7317624
    H       17.3764207   12.5069255   20.2796016
    H       15.8037479   13.5569431   21.8958172
    H       14.9900304   15.3977800   22.6305792
    H       16.7210120   17.4526798   20.2989175
*
