! ri-mp2 cc-pvtz cc-pvtz/c TightSCF  NoKeepInts

%scf
  MaxCore 4096
end
*xyz  0  1
    C       14.6903125   14.1505804   16.3475193
    C       15.5818283   15.3486899   16.7073646
    O       16.9121073   14.9831646   16.2825109
    C       18.0427600   15.7512737   16.4032662
    O       19.1147329   15.3458583   15.9966503
    C       17.9762042   16.7913741   17.4556293
    C       17.3230995   17.9589898   17.2201334
    C       16.7349652   18.3752917   15.8756859
    N       17.5826775   19.0675271   18.0325548
    C       18.4372487   19.0771598   19.1065940
    S       18.7511635   20.4777183   19.9295314
    N       19.0171490   17.8745289   19.4519284
    C       18.9318860   16.6438777   18.6284467
    C       18.0204865   15.9178822   19.6659372
    C       18.3611113   14.5578826   19.8866209
    C       17.6100377   13.7131110   20.7117009
    C       16.4696007   14.2133210   21.3452270
    C       16.0915487   15.5457799   21.1351576
    O       14.9651413   16.0001153   21.7373169
    C       16.8413025   16.3925465   20.2975428
    H       15.2378826   13.2066520   16.4572084
    H       14.3881978   14.2418047   15.2954069
    H       13.7825191   14.1095713   16.9602995
    H       15.1847014   16.2856312   16.3095550
    H       15.5905794   15.4157956   17.8073298
    H       17.1353548   17.7763615   15.0457093
    H       16.9943750   19.4131496   15.6240021
    H       15.6431493   18.3074443   15.8508482
    H       17.2491962   19.9769009   17.7479241
    H       19.6194412   17.9077301   20.2632495
    H       19.7180555   15.8834193   18.5825914
    H       19.2195191   14.1157624   19.3855387
    H       17.9103289   12.6735314   20.8422038
    H       15.8813300   13.5592264   21.9817735
    H       14.6444639   15.2846397   22.3106504
    H       16.4925457   17.4077069   20.1523877
*
