! ri-mp2 cc-pvtz cc-pvtz/c TightSCF  NoKeepInts

%scf
  MaxCore 4096
end
*xyz  0  1
    C       14.7767619   14.0977532   16.4868339
    C       15.5093870   15.4257135   16.7132494
    O       16.8518125   15.0357457   16.3888169
    C       17.9873063   15.7847933   16.3969191
    O       19.0408169   15.2436466   16.1222606
    C       17.9478219   16.8370985   17.4357971
    C       17.3476602   18.0300788   17.1843721
    C       16.7556666   18.4545726   15.8446761
    N       17.6409067   19.1330492   17.9931963
    C       18.4748366   19.1119717   19.0822937
    S       18.7929610   20.4963273   19.9322935
    N       19.0171738   17.8914411   19.4291900
    C       18.8983414   16.6567231   18.6117905
    C       17.9961588   15.8934260   19.6379261
    C       18.3303162   14.5226064   19.8264696
    C       17.5854433   13.6616119   20.6441310
    C       16.4535932   14.1523441   21.3000612
    C       16.0807901   15.4914437   21.1194654
    O       14.9630975   15.9416237   21.7419683
    C       16.8282290   16.3547974   20.2939202
    H       15.4227458   13.2708974   16.8143355
    H       14.5816713   13.9552165   15.4156341
    H       13.8380105   14.0339713   17.0439379
    H       15.0531238   16.2562492   16.1548780
    H       15.4917808   15.6619859   17.7873904
    H       17.1595067   17.8698651   15.0061800
    H       16.9956050   19.5003717   15.6003129
    H       15.6658149   18.3649686   15.8319592
    H       17.3242544   20.0516960   17.7170011
    H       19.6144891   17.9111364   20.2443188
    H       19.6622439   15.8761359   18.5618904
    H       19.1798451   14.0831554   19.3068362
    H       17.8820632   12.6173766   20.7529883
    H       15.8693030   13.4869534   21.9301266
    H       14.6409264   15.2208565   22.3078024
    H       16.4865306   17.3743914   20.1727768
*
