! ri-mp2 cc-pvtz cc-pvtz/c TightSCF  NoKeepInts

%scf
  MaxCore 4096
end
*xyz  0  1
    C       14.8545487   13.9968501   15.9794546
    C       15.5060502   15.1693817   15.2195843
    O       16.2157513   15.9490590   16.1689308
    C       17.4492826   15.7469815   16.6938647
    O       18.2002238   14.8223076   16.4279677
    C       17.7209456   16.8617745   17.6470811
    C       17.1495974   18.1047508   17.5237434
    C       16.3599290   18.7461840   16.3788829
    N       17.7381226   19.1018165   18.3135842
    C       18.7544246   18.9852709   19.2225606
    S       19.3059290   20.3136856   20.0414236
    N       19.2792153   17.7307303   19.4028815
    C       18.8624434   16.5517438   18.6145911
    C       18.1101445   15.9215264   19.8276347
    C       18.5051947   14.5869652   20.1228360
    C       17.8112501   13.7659620   21.0167599
    C       16.6820008   14.2674593   21.6654304
    C       16.2587318   15.5767145   21.4001892
    O       15.1357990   16.0180010   22.0185802
    C       16.9465347   16.3983680   20.4837035
    H       15.5496346   13.4417379   16.6182267
    H       14.3541111   13.3128032   15.2853939
    H       14.0679349   14.4131007   16.6293703
    H       16.2035497   14.7812018   14.4671782
    H       14.7492665   15.7955150   14.7344462
    H       15.9608503   18.0806930   15.6140470
    H       17.0107145   19.4255883   15.8128907
    H       15.5089036   19.3220779   16.7536537
    H       17.4413780   20.0526269   18.1544280
    H       19.9486654   17.6495487   20.1568084
    H       19.4978714   15.6833976   18.4226930
    H       19.3427372   14.1257348   19.6042170
    H       18.1378933   12.7383981   21.1760961
    H       16.1340615   13.6287655   22.3516558
    H       14.8476036   15.3037375   22.6110016
    H       16.5457141   17.3815441   20.2722075
*
