! ri-mp2 cc-pvtz cc-pvtz/c TightSCF  NoKeepInts

%scf
  MaxCore 4096
end
*xyz  0  1
    C       15.6617201   13.7714738   15.1157270
    C       15.0650065   15.0364038   15.7675954
    O       15.9082118   15.8714433   16.5845481
    C       17.2658757   15.8268614   16.7238073
    O       17.9292375   14.8102620   16.5976757
    C       17.6378585   16.9031206   17.6835624
    C       17.2201182   18.1911798   17.4843964
    C       16.4547899   18.7660298   16.3010750
    N       17.8932386   19.1706613   18.2333436
    C       18.8958532   18.9875300   19.1478578
    S       19.5651911   20.2784366   19.9419280
    N       19.2895252   17.6917837   19.3802476
    C       18.7550678   16.5165613   18.6515593
    C       17.9608723   15.9109390   19.8588775
    C       18.1566537   14.5155539   20.0805353
    C       17.4492707   13.7881889   21.0499639
    C       16.4916176   14.4422194   21.8293591
    C       16.2437299   15.8050542   21.6106875
    O       15.2921425   16.4186013   22.3586799
    C       16.9532430   16.5323669   20.6329372
    H       16.3443286   14.0660125   14.3062419
    H       14.8564726   13.1860854   14.6550897
    H       16.1984962   13.1232147   15.8162731
    H       14.3248281   15.5630877   15.1527133
    H       14.4763103   14.5891272   16.5787567
    H       15.3849817   18.5709278   16.4114803
    H       16.7862872   18.3332520   15.3457120
    H       16.5870054   19.8537090   16.1994014
    H       17.6569608   20.1396486   18.0722331
    H       20.0104835   17.5893876   20.0810031
    H       19.3274522   15.6066218   18.4622712
    H       18.8543198   13.9479955   19.4670406
    H       17.6380191   12.7216452   21.1841750
    H       15.9418128   13.8848263   22.5837348
    H       14.9676516   15.7690743   23.0033436
    H       16.7023656   17.5727092   20.4801630
*
