! ri-mp2 cc-pvtz cc-pvtz/c TightSCF  NoKeepInts

%scf
  MaxCore 4096
end
*xyz  0  1
    C       15.3792101   13.6629793   15.8813953
    C       15.1163507   15.1162683   16.2862619
    O       16.1745434   15.8817172   16.8240102
    C       17.5011482   15.9059583   16.5457675
    O       18.1817130   14.9117448   16.3462780
    C       17.8419105   16.9470207   17.5279687
    C       17.4230828   18.2281095   17.3377380
    C       16.7155646   18.7679921   16.0961054
    N       17.9465008   19.2483032   18.1296639
    C       18.8640561   19.0666958   19.1319147
    S       19.3988442   20.3554846   20.0219055
    N       19.2951635   17.7738809   19.3655981
    C       18.8738887   16.5836750   18.5800666
    C       17.9752752   15.9243585   19.6938386
    C       18.1985289   14.5308979   19.9189484
    C       17.4195152   13.7546197   20.7877860
    C       16.3547067   14.3507906   21.4645848
    C       16.0775165   15.7074983   21.2444726
    O       15.0191067   16.2569297   21.8925630
    C       16.8615517   16.4870569   20.3653296
    H       15.6596501   13.6408120   14.8201203
    H       14.4553067   13.0858432   15.9933839
    H       16.1740054   13.1878759   16.4672005
    H       14.2644761   15.6376653   15.8297401
    H       14.7234136   14.9151412   17.2887339
    H       17.0745561   18.2843504   15.1758223
    H       16.8867929   19.8444107   15.9449993
    H       15.6340088   18.6119700   16.1561421
    H       17.6830566   20.2046620   17.9435433
    H       19.9149702   17.6751797   20.1569247
    H       19.4469166   15.6637077   18.4761466
    H       18.9797700   13.9949604   19.3834526
    H       17.6379072   12.6935930   20.9192183
    H       15.7471252   13.7519771   22.1387190
    H       14.6662511   15.5787983   22.4924880
    H       16.5806102   17.5190669   20.2051716
*
