! RI-MP2 cc-pVTZ cc-pVTZ/c TightSCF KeepDens NoKeepInts

*xyz  0  1
    C    12.6118215   -7.7878836   -2.3166826
    C    11.6992247   -7.8979121   -3.5622207
    O    12.5839364   -7.8904947   -4.7181180
    C    12.2121636   -8.4717050   -5.8326634
    O    11.0566019   -8.9616125   -5.9809888
    C    13.2684776   -8.5133884   -6.9297629
    C    14.4329248   -7.8990455   -6.8501705
    C    14.8832435   -6.7837477   -5.9452079
    N    15.3319955   -8.0665339   -7.9273400
    C    15.0211460   -8.7248456   -9.0541089
    S    15.8366851   -8.5678889  -10.5232329
    N    13.8076361   -9.2080627   -9.1432793
    C    12.9091223   -9.4830063   -8.0410030
    C    12.8406508  -10.9758756   -7.5164749
    C    11.9249402  -11.8987496   -8.0302228
    C    11.8452314  -13.2861126   -7.6455664
    C    12.7874300  -13.6537439   -6.6353408
    C    13.7739447  -12.7933028   -6.1209448
    O    14.6990488  -13.3086978   -5.2492355
    C    13.8362832  -11.4562765   -6.5919716
    H    12.7392910   -6.7451705   -2.0009425
    H    13.6208490   -8.1717513   -2.5108438
    H    12.3735063   -8.3684582   -1.4170510
    H    11.1978528   -8.8613166   -3.4083781
    H    10.9961851   -7.0560191   -3.5745522
    H    15.6304533   -6.1173224   -6.3932556
    H    15.5084773   -7.2793807   -5.1924661
    H    14.1585887   -6.0939677   -5.4954592
    H    16.2618663   -7.6732902   -7.8456939
    H    13.4680659   -9.6415793   -9.9934098
    H    11.9210029   -9.1694781   -8.3994879
    H    11.2450439  -11.5421827   -8.7983355
    H    11.1233644  -13.9601203   -8.0972495
    H    12.9417900  -14.7005600   -6.3909127
    H    15.1678122  -12.5437850   -4.8725415
    H    14.6168104  -10.7511661   -6.3217986
*
