! RI-MP2 cc-pVTZ cc-pVTZ/c TightSCF KeepDens NoKeepInts

*xyz  0  1
    C     0.0730026    6.1577030  -12.0900473
    C     0.2678268    4.7002808  -12.5050491
    O     1.4996476    4.7991737  -13.3296039
    C     2.2441865    3.7285700  -13.6733041
    O     2.1636143    2.6715227  -13.1217210
    C     2.9848133    3.8964447  -14.9848686
    C     2.7682435    4.7385894  -15.9439689
    C     1.7385892    5.7534412  -16.0962212
    N     3.4447968    4.5691568  -17.1676007
    C     4.3183397    3.5622348  -17.5217331
    S     4.8412264    3.1108397  -18.9961886
    N     4.5899814    2.7692239  -16.4889419
    C     4.1007697    2.9095717  -15.0848068
    C     5.2236021    3.2565257  -14.1073712
    C     5.5209317    2.5440645  -12.9688770
    C     6.4666509    2.9361110  -11.9854230
    C     7.2247649    4.0566595  -12.2365515
    C     6.9234720    4.8642291  -13.3301299
    O     7.6665683    5.8978282  -13.5514499
    C     5.9701519    4.4297843  -14.2412015
    H     0.7266516    6.3671723  -11.2344383
    H    -0.9930597    6.3088158  -11.8806027
    H     0.4570398    6.8139225  -12.8806679
    H     0.3771136    4.1960716  -11.5370506
    H    -0.5632407    4.2617188  -13.0708933
    H     0.8510214    5.1542814  -15.8586978
    H     1.6415344    6.2913513  -17.0472326
    H     1.8888959    6.4272951  -15.2438629
    H     2.9975377    5.0070902  -17.9639298
    H     5.1508181    1.9851841  -16.7999397
    H     3.7561271    1.9056043  -14.8082918
    H     4.9725566    1.6307750  -12.7577065
    H     6.5207859    2.4305489  -11.0258020
    H     8.0245311    4.4040061  -11.5891560
    H     8.3255903    5.9604218  -12.8383569
    H     5.6788553    5.0962676  -15.0476396
*
