! RI-MP2 cc-pVTZ cc-pVTZ/c TightSCF KeepDens NoKeepInts

*xyz  0  1
    C    15.9379189    5.7994140    9.8132405
    C    14.8797596    6.0513562   10.9001220
    O    13.6160051    6.2691179   10.2250466
    C    12.5338179    6.5955036   11.0113478
    O    12.4811743    6.5304410   12.2403010
    C    11.3171803    6.4675502   10.1478378
    C    11.1929340    6.9558849    8.8832638
    C    12.1902592    7.7211891    8.0868548
    N    10.0878141    6.7259604    8.1914914
    C     8.9315033    6.1419235    8.6678431
    S     7.5664022    6.1270790    7.7560649
    N     9.0686247    5.6062561    9.8590075
    C    10.1752347    5.7712634   10.8032173
    C    10.5446956    4.4023758   11.3109834
    C     9.7940393    3.8889318   12.4376757
    C    10.0740935    2.6188636   13.0200570
    C    11.1465279    1.8623835   12.4785201
    C    11.8760160    2.3768468   11.4047866
    O    12.8700117    1.5977412   10.8968174
    C    11.5852973    3.6114071   10.8092999
    H    16.9040132    5.6641527   10.3147939
    H    16.0032682    6.7159375    9.2141515
    H    15.5681456    4.9323850    9.2522427
    H    14.8243492    5.2149137   11.6075704
    H    15.1989013    6.9776805   11.3933486
    H    12.8473117    8.3053222    8.7428004
    H    11.5322523    8.4777974    7.6421516
    H    12.8144006    7.1762557    7.3680470
    H    10.0721254    7.0123543    7.2200478
    H     8.2701921    5.0836582   10.1986591
    H     9.8031573    6.3758205   11.6394377
    H     8.9392291    4.4455048   12.8103981
    H     9.5232867    2.2293168   13.8710924
    H    11.4294259    0.9347470   12.9672482
    H    13.1888441    1.0256434   11.6163863
    H    12.2365099    3.9427553   10.0058522
*
