! RI-MP2 cc-pVTZ cc-pVTZ/c TightSCF KeepDens NoKeepInts

*xyz  0  1
    C     7.3924037    9.7197021    6.6428453
    C     7.0139244    8.3373151    7.2833935
    O     5.6872587    8.4242511    7.8376043
    C     5.4768998    9.3222357    8.8784883
    O     6.3773591    9.6959976    9.6315637
    C     4.0771528    9.4402870    9.2386889
    C     3.0148730    9.3285676    8.3619575
    C     3.1238201    9.1751963    6.8691716
    N     1.8163570    9.4761216    8.8797270
    C     1.4948382    9.8174626   10.1376334
    S    -0.0507742   10.1195802   10.7169363
    N     2.5621507   10.1678728   10.9419040
    C     3.8546547    9.5999974   10.7181838
    C     4.0569974    8.3468925   11.5594288
    C     3.2520864    7.2216731   11.3415428
    C     3.4555622    6.0103471   12.1371550
    C     4.6071679    5.8500275   13.0076670
    C     5.3831021    7.0242709   13.2737634
    O     6.5129859    6.9175313   13.9655946
    C     5.2263942    8.1865645   12.4215679
    H     7.7493605   10.4388412    7.3902516
    H     6.5617470   10.1480699    6.0686498
    H     8.2689959    9.6502175    5.9871414
    H     6.9747711    7.5944305    6.4773040
    H     7.7506815    7.9177116    7.9793184
    H     2.1969147    9.6488501    6.5232113
    H     3.2856199    8.1552798    6.4993327
    H     3.8922527    9.8043394    6.4034656
    H     1.0412939    9.1514976    8.3141628
    H     2.3112797   10.4541380   11.8805639
    H     4.5469937   10.4162433   10.9581817
    H     2.3968655    7.2688087   10.6738816
    H     2.7364396    5.2192333   11.9463735
    H     4.7290884    4.9077324   13.5336055
    H     7.0272797    7.7295093   13.8141925
    H     5.9909745    8.9464296   12.5535757
*
